HELLO WORLD! 6
%Chk=checkpoint.chk
%NProcShared=12
# wB97XD Gen Opt=(QST2) SCRF=(Solvent=TetraHydroFuran)

Mn Transition State Reactant

0 1
Mn         3.204960        0.184130       -0.470010
C          4.001270       -0.448160       -1.997530
C          4.631800       -0.359980        0.526440
C          3.984390        1.835430       -0.630640
Br         2.309401        2.309401        2.309401
N          2.107050        0.815940        1.276350
N          2.177090       -1.693960       -0.197830
C          2.704380        1.294120        2.381780
C          1.988310        1.792970        3.461190
C          0.596300        1.826850        3.403070
C         -0.037960        1.326780        2.266220
C          0.772880        0.819560        1.251850
C          0.915030       -1.835180       -0.614030
C          0.069870       -2.869740       -0.219890
C          2.680980       -2.677670        0.566270
C          1.942670       -3.790530        0.947190
C          0.605110       -3.882850        0.573060
C         -1.370500       -2.762800       -0.588410
C         -1.505200        1.424860        2.025190
C         -2.302070        0.316180        1.678340
C         -2.232770       -2.005960        0.227020
C         -3.643800        0.504530        1.318240
C         -3.564170       -1.802890       -0.158560
C         -1.870090       -3.340090       -1.757820
C         -2.098680        2.692120        2.067470
C         -3.437240        2.870330        1.729620
C         -3.197680       -3.142010       -2.133060
C         -4.039850       -2.358640       -1.349070
C         -4.205570        1.782960        1.327540
S         -1.645840       -1.336890        1.770040
S         -4.671860       -0.875750        0.875470
H          2.524370        2.165790        4.334040
H          0.013280        2.237540        4.230010
H          0.293520        0.414980        0.366460
H          0.526220       -1.069450       -1.280900
H          3.714030       -2.577020        0.897270
H          2.412010       -4.558960        1.561550
H         -0.015790       -4.716970        0.905370
H         -1.203960       -3.934360       -2.386170
H         -1.487030        3.555550        2.337030
H         -3.877210        3.868540        1.753320
H         -3.575510       -3.588030       -3.054480
H         -5.072450       -2.179430       -1.654780
H         -5.245040        1.919870        1.023510
O          5.560130       -0.649850        1.128530
O          4.465210        2.865690       -0.727660
O          4.485080       -0.860010       -2.944740
H          3.795150        1.287910        2.401590
N          1.635770        0.918560       -1.537740
C          0.658810        1.381340       -1.944850
H         -1.600330        0.156920       -1.315500
C         -1.748280        1.097530       -1.850000
C         -0.647730        1.855260       -2.288060
C         -3.034840        1.556530       -2.102120
H         -3.891340        0.974720       -1.756410
C         -0.831410        3.059510       -2.981520
C         -3.222040        2.757060       -2.789450
C         -2.126520        3.502230       -3.229920
H          0.030630        3.638630       -3.314700
H         -4.234170        3.116220       -2.984870

Mn Transition State Product

0 1
Mn         2.948790       -0.000250        0.124710
C          3.970220        1.318300        0.856790
C          3.961820       -0.000140       -1.354900
C          3.970010       -1.319100        0.856540
Br         1.734680       -0.000070        2.448050
N          1.601340       -1.485920       -0.673520
N          1.601500        1.485660       -0.673260
C          1.971590       -2.281080       -1.693040
C          1.116490       -3.201840       -2.279620
C         -0.195140       -3.299160       -1.819640
C         -0.595130       -2.476850       -0.769160
C          0.352300       -1.609980       -0.218580
C          0.352190        1.609200       -0.218940
C         -0.594860        2.476840       -0.768960
C          1.972350        2.281920       -1.691710
C          1.117620        3.203360       -2.277740
C         -0.194220        3.300310       -1.818290
C         -1.977320        2.485540       -0.214650
C         -1.977440       -2.485600       -0.214480
C         -2.824650       -1.372060       -0.364770
C         -2.824570        1.372020       -0.364870
C         -4.098180       -1.374490        0.219790
C         -4.098140        1.374580        0.219600
C         -2.448900        3.606310        0.475960
C         -2.448940       -3.606220        0.476400
C         -3.718960       -3.608220        1.048490
C         -3.718980        3.608470        1.047910
C         -4.536260        2.486660        0.942500
C         -4.536240       -2.486430        0.942930
S         -2.320820       -0.000070       -1.379320
S         -5.201370        0.000050       -0.001310
H          1.476750       -3.825370       -3.098040
H         -0.899480       -3.997410       -2.276760
H          0.087560       -1.004570        0.647730
H          0.086890        1.002800        0.646490
H          2.996310        2.182860       -2.052740
H          1.478340        3.827770       -3.095300
H         -0.898240        3.999210       -2.274940
H         -1.797290        4.475860        0.583610
H         -1.797340       -4.475780        0.584100
H         -4.067830       -4.483790        1.598660
H         -4.067880        4.484150        1.597870
H         -5.521210        2.471940        1.413200
H         -5.521160       -2.471620        1.413710
O          4.667850       -0.000030       -2.263070
O          4.601510       -2.153780        1.317690
O          4.601970        2.152850        1.317850
H          2.995350       -2.181690       -2.054530
N         -1.507557       -1.507557        4.522670
C         -1.347833       -1.667280        5.658263
C         -1.149641       -1.866259        7.069836
C         -1.914711       -2.823024        7.752960
C         -0.192517       -1.101240        7.753061
C         -1.717770       -3.009881        9.117903
H         -2.656900       -3.413289        7.213215
C         -0.005721       -1.298105        9.117828
H          0.397714       -0.359321        7.212910
C         -0.765989       -2.249856        9.799066
H         -2.311197       -3.753510        9.652717
H          0.737946       -0.704861        9.652798
H         -0.615527       -2.400348        10.870017


