%Chk=checkpoint.chk
%NProcShared=12
# wB97XD Gen Opt=(QST2) SCRF=(Solvent=TetraHydroFuran)

Mn Transition State Reactant

0 1
Mn         0.000000        0.000000        0.000000
C         -0.096787        1.832300        0.022954
C          0.000000        0.000000       -1.823415
C          1.832823        0.000000       -0.029381
Br         2.309401        2.309401        2.309401
N         -0.049220       -2.154816        0.093317
N         -2.151526       -0.140364        0.095154
C          0.523852       -2.939878       -0.835499
C          0.576091       -4.321822       -0.716180
C          0.037873       -4.932623        0.414952
C         -0.567239       -4.132050        1.383305
C         -0.594216       -2.757513        1.151787
C         -2.760188       -0.339992        1.268031
C         -4.084042       -0.750517        1.405275
C         -2.908210       -0.245040       -1.010247
C         -4.257610       -0.571188       -0.972755
C         -4.857197       -0.855730        0.250803
C         -4.546123       -1.147628        2.765677
C         -1.060725       -4.645082        2.692419
C         -2.360350       -4.394350        3.174691
C         -4.295103       -2.455771        3.220642
C         -2.708796       -4.776982        4.477597
C         -4.623496       -2.816821        4.533782
C         -5.162457       -0.233945        3.623399
C         -0.161928       -5.338348        3.511871
C         -0.520395       -5.734960        4.797112
C         -5.494794       -0.600318        4.926418
C         -5.208418       -1.880920        5.390753
C         -1.783615       -5.431391        5.293591
S         -3.595609       -3.667170        2.117793
S         -4.340590       -4.472490        5.112149
H          1.050868       -4.910252       -1.501393
H          0.089512       -6.015972        0.541820
H         -1.073149       -2.122659        1.890007
H         -2.162815       -0.196945        2.165201
H         -2.422597       -0.069088       -1.969468
H         -4.819130       -0.632196       -1.905051
H         -5.900987       -1.170596        0.306162
H         -5.365215        0.778195        3.268192
H          0.846571       -5.537317        3.143590
H          0.199859       -6.260226        5.426309
H         -5.965885        0.124316        5.592514
H         -5.442802       -2.161933        6.419312
H         -2.059309       -5.704272        6.313986
O          0.062549        0.019147       -2.965367
O          2.973770       -0.005212       -0.045177
O         -0.178828        2.969801        0.039098
H          0.966498       -2.445973       -1.701717
N          0.120502       -0.064347        2.030549
C          0.175699       -0.320412        3.155600
H         -1.926369       -1.528664        4.214107
C         -1.083953       -1.436083        4.902649
C          0.098802       -0.786638        4.506955
C         -1.174899       -1.964283        6.184139
H         -2.088689       -2.476072        6.491824
C          1.180585       -0.657823        5.388995
C         -0.098529       -1.841089        7.064473
C          1.071006       -1.188204        6.670284
H          2.093017       -0.153066        5.069325
H         -0.172108       -2.258470        8.070441

Mn Transition State Product

0 1
Mn         0.000000        0.000000        0.000000
C         -0.088308        1.819151        0.026940
C         -0.000000       -0.000000       -1.793175
C          1.821291        0.000000        0.027014
Br         0.214058        0.225247        2.602963
N         -0.001982       -2.156261        0.102668
N         -2.153594       -0.106664        0.102610
C          0.387337       -2.900547       -0.947692
C          0.338935       -4.286450       -0.948566
C         -0.157831       -4.949052        0.171974
C         -0.571673       -4.191145        1.264679
C         -0.445729       -2.801971        1.183691
C         -2.777031       -0.582027        1.183258
C         -4.158549       -0.774514        1.264388
C         -2.915909        0.247394       -0.947304
C         -4.297876        0.132439       -0.948046
C         -4.935644       -0.396524        0.172163
C         -4.735647       -1.367725        2.502770
C         -1.135906       -4.796150        2.503283
C         -2.482942       -4.595857        2.857825
C         -4.470001       -2.703353        2.857529
C         -2.978204       -5.119284        4.059629
C         -4.968935       -3.223400        4.059281
C         -5.546552       -0.593984        3.338960
C         -0.323606       -5.568060        3.339788
C         -0.822041       -6.094195        4.529320
C         -6.048087       -1.117344        4.528410
C         -5.741926       -2.422451        4.903213
C         -2.140592       -5.852030        4.903861
S         -3.584962       -3.763689        1.735969
S         -4.687500       -4.920902        4.500340
H          0.676631       -4.836062       -1.827358
H         -0.231127       -6.038457        0.192738
H         -0.697287       -2.188191        2.048037
H         -2.151745       -0.804686        2.047269
H         -2.402101        0.643166       -1.823668
H         -4.863251        0.444114       -1.826465
H         -6.020291       -0.521980        0.193049
H         -5.763454        0.439079        3.059614
H          0.718845       -5.734385        3.060595
H         -0.172219       -6.681402        5.180427
H         -6.666494       -0.496878        5.179253
H         -6.108418       -2.828516        5.848039
H         -2.528419       -6.237680        5.848734
O          0.047911        0.050362       -2.941399
O          2.964743       -0.009675        0.050819
O         -0.153486        2.960798        0.050427
H          0.757150       -2.368219       -1.824335
N         -1.507557       -1.507557        4.522670
C         -0.798528       -0.798528        5.101591
C          0.083237        0.082451        5.821160
C          1.370521       -0.352100        6.169664
C         -0.351279        1.370078        6.169512
C          2.217653        0.505115        6.865596
H          1.699718       -1.355358        5.894552
C          0.505790        2.217078        6.865401
H         -1.354522        1.698984        5.894008
C          1.787093        1.786362        7.212774
H          3.220021        0.170428        7.138372
H          0.171332        3.219530        7.138163
H          2.455675        2.454914        7.758906


