%RWF=myrwfile
%NoSave
%NProcShared=24
%Chk=checkpoint.chk
# wB97XD Gen SCRF=(Solvent=TetraHydroFuran) Freq

TS Freq Analysis

0 1
Mn       2.244279000     -1.557984000     -1.060549000
C        3.004537000     -3.236188000     -0.983062000
O        3.470561000     -4.276539000     -0.974029000
C        3.727144000     -0.939351000     -1.984186000
O        4.623030000     -0.598685000     -2.597882000
C        1.449932000     -1.980193000     -2.616750000
N        1.521442000      0.419691000     -0.983645000
C        1.932286000      2.702931000     -0.388603000
C        0.622226000      3.048224000     -0.707124000
C        0.283263000      0.773151000     -1.340789000
H        2.648380000      3.438625000     -0.021008000
H        0.265538000      4.072590000     -0.579646000
N        2.607046000     -0.536801000      1.932576000
C        1.709246000      0.017042000      2.410269000
C        0.552012000      0.679223000      2.945026000
C       -0.426725000     -0.070221000      3.614122000
C       -1.571393000      0.563922000      4.084576000
C        0.391252000      2.060056000      2.763937000
H       -0.285869000     -1.141449000      3.760212000
H        1.166370000      2.635791000      2.257973000
N        0.659246000     -2.278372000      0.153795000
C       -0.027763000     -3.414822000      2.148831000
C       -1.365066000     -3.138961000      1.873452000
H        0.264187000     -3.966782000      3.042318000
C        2.338941000      1.383067000     -0.517964000
H        3.361117000      1.109238000     -0.235740000
C        0.950007000     -2.954538000      1.280607000
H        2.004644000     -3.123938000      1.499684000
H       -2.337247000     -0.016126000      4.602133000
O        0.914113000     -2.233089000     -3.594889000
S       -2.401580000      0.594556000      0.500972000
S       -5.398741000      1.169935000     -0.417413000
C       -0.235885000      2.057603000     -1.185172000
C       -1.655761000      2.326324000     -1.539910000
C       -1.951075000      3.265518000     -2.533952000
C       -3.267095000      3.518191000     -2.911381000
C       -4.312083000      2.834115000     -2.298077000
C       -4.039210000      1.925222000     -1.273071000
C       -2.716418000      1.665674000     -0.888534000
H       -1.130125000      3.786303000     -3.031031000
H       -3.479592000      4.242111000     -3.699785000
H       -5.345425000      3.010298000     -2.603093000
C       -3.498367000     -0.764162000      0.143738000
C       -4.819836000     -0.498757000     -0.242803000
C       -5.724422000     -1.545422000     -0.436519000
C       -5.324311000     -2.857357000     -0.203520000
C       -4.013816000     -3.128612000      0.179490000
C       -3.081515000     -2.096868000      0.336337000
H       -6.743873000     -1.325304000     -0.759149000
H       -6.034598000     -3.674875000     -0.337294000
H       -3.694090000     -4.160619000      0.338092000
C       -1.682064000     -2.435788000      0.712128000
H       -2.153330000     -3.458543000      2.558391000
C       -0.629230000     -2.067231000     -0.126236000
H       -0.863109000     -1.591378000     -1.075279000
H       -0.345301000      0.009782000     -1.794236000
C       -1.740123000      1.935699000      3.892098000
C       -0.760179000      2.681666000      3.236603000
H       -0.891446000      3.755546000      3.093794000
H       -2.643510000      2.427964000      4.257287000
Br       5.847103000      1.841955000      0.538775000

C H O N S 0
Def2SVP
****
Mn 0
Def2TZVP
****
Br 0
S    6   1.00
 113286.3877600              0.14283037779D-02
  17009.6263030              0.10950417496D-01
   3870.1842567              0.54421006604D-01
   1093.0357227              0.19047907695
    356.39721797             0.39024642737
    123.12539643             0.30814432514
S    3   1.00
    236.74084007            -0.11228065671
     28.468661070            0.64775962312
     11.883443722            0.44235575986
S    3   1.00
     21.269633312           -0.22642576323
      3.6129226841           0.73823712008
      1.6626648969           0.42683868694
S    1   1.00
      0.34823793232          1.0000000
S    1   1.00
      0.13019031394          1.0000000
S    1   1.00
      0.50966709763D-01      1.0000000
P    5   1.00
   1560.2801881              0.87166669072D-02
    368.47859205             0.66243637420D-01
    117.22978849             0.26495610385
     42.648909248            0.53839160587
     16.087225096            0.36579387888
P    3   1.00
      8.6352810058           0.34248787366
      3.5613665502           0.57500678213
      1.5292626609           0.24330394172
P    1   1.00
      0.53064294848          1.0000000
P    1   1.00
      0.15702758965          1.0000000
P    1   1.00
      0.39636841846D-01      1.0000000
D    4   1.00
    104.85518642             0.22650147581D-01
     30.281143688            0.13455483230
     10.651394267            0.36474454537
      3.8699456233           0.49044587056
D    1   1.00
      1.3240876762            .27137289040
D    1   1.00
      0.3890000              1.0000000
D    1   1.00
      0.96543342393D-01      1.0000000
****

