%NProcShared=12
%Chk=checkpoint.chk
# wB97XD Gen SCRF=(Solvent=TetraHydroFuran) Opt

Anth Prod Optimization

0 1
Mn         8.78769        2.99011       14.21267
C         10.46982        3.50973       14.64234
O         11.52624        3.84687       14.92604
C          9.00163        3.43765       12.46725
O          9.12200        3.72324       11.36543
C          9.38132        1.33122       13.87077
N          6.71151        2.48437       13.81864
C          4.45445        3.09298       13.29389
C          4.02293        1.78502       13.49496
C          6.29599        1.22234       13.95902
H          3.75401        3.88118       13.01254
H          2.96846        1.51811       13.38787
N          5.08800        3.47347       16.84720
C          5.11287        4.62989       16.88594
C          5.16761        6.06804       16.92592
C          4.57514        6.81369       15.89852
C          4.65422        8.20243       15.92966
C          5.83456        6.70709       17.97941
H          4.06357        6.30307       15.08015
H          6.29417        6.11384       18.77275
N          8.39191        2.54357       16.30703
C          8.22036        3.19948       18.60446
C          7.82438        1.91665       18.97258
H          8.31909        3.99416       19.34610
C          5.79479        3.40468       13.48051
H          6.15664        4.42954       13.37658
C          8.48008        3.47599       17.26857
H          8.75526        4.48161       16.94359
H          4.19504        8.78856       15.13013
O          9.83642        0.30849       13.60624
C          5.04386       -0.08366       16.78739
C          4.47581       -3.18537       17.25719
C          4.96550        0.81917       13.84466
C          4.61877       -0.60832       14.10629
C          4.21825       -1.43840       13.05462
C          3.95151       -2.78807       13.27329
C          4.08330       -3.33076       14.54840
C          4.43820       -2.50593       15.61842
C          4.70288       -1.14669       15.40471
H          4.13787       -1.01829       12.04887
H          3.65529       -3.42789       12.43886
H          3.90002       -4.39430       14.72020
C          6.20617       -1.07190       17.69973
C          5.93735       -2.42946       17.92302
C          6.78925       -3.19595       18.72147
C          7.88677       -2.59563       19.33140
C          8.16506       -1.25023       19.10392
C          7.34979       -0.47741       18.26926
H          6.58362       -4.25860       18.87233
H          8.54305       -3.18911       19.97215
H          9.04606       -0.78965       19.55818
C          7.72793        0.93779       17.98374
H          7.59261        1.67801       20.01388
C          8.04719        1.30703       16.67621
H          8.02561        0.53860       15.90361
H          7.05069        0.46472       14.17345
C          5.32028        8.84255       16.97597
C          5.90799        8.09667       17.99879
H          6.42716        8.60041       18.81756
H          5.38196        9.93365       16.99512
Br         8.21820        5.50804       14.55493
H          5.20607        0.90478       16.69744
H          4.32577       -4.24327       17.39434

C H O N 0
Def2SVP
****
Mn 0
Def2TZVP
****
Br 0
S    6   1.00
 113286.3877600              0.14283037779D-02
  17009.6263030              0.10950417496D-01
   3870.1842567              0.54421006604D-01
   1093.0357227              0.19047907695
    356.39721797             0.39024642737
    123.12539643             0.30814432514
S    3   1.00
    236.74084007            -0.11228065671
     28.468661070            0.64775962312
     11.883443722            0.44235575986
S    3   1.00
     21.269633312           -0.22642576323
      3.6129226841           0.73823712008
      1.6626648969           0.42683868694
S    1   1.00
      0.34823793232          1.0000000
S    1   1.00
      0.13019031394          1.0000000
S    1   1.00
      0.50966709763D-01      1.0000000
P    5   1.00
   1560.2801881              0.87166669072D-02
    368.47859205             0.66243637420D-01
    117.22978849             0.26495610385
     42.648909248            0.53839160587
     16.087225096            0.36579387888
P    3   1.00
      8.6352810058           0.34248787366
      3.5613665502           0.57500678213
      1.5292626609           0.24330394172
P    1   1.00
      0.53064294848          1.0000000
P    1   1.00
      0.15702758965          1.0000000
P    1   1.00
      0.39636841846D-01      1.0000000
D    4   1.00
    104.85518642             0.22650147581D-01
     30.281143688            0.13455483230
     10.651394267            0.36474454537
      3.8699456233           0.49044587056
D    1   1.00
      1.3240876762            .27137289040
D    1   1.00
      0.3890000              1.0000000
D    1   1.00
      0.96543342393D-01      1.0000000
****

