%Chk=checkpoint.chk
%NProcShared=12
# wB97XD Gen Opt SCRF=(Solvent=TetraHydroFuran)

Mn Transition State Reactant

0 1
Mn         8.61564        3.04629       14.76070
C         10.21396        3.64360       15.42930
O         11.22487        3.93738       15.86875
C          8.95740        3.75282       13.10526
O          9.15418        4.13703       12.04907
C          9.43671        1.50443       14.25828
N          6.65512        2.40028       14.02027
C          4.51204        2.98077       13.11518
C          4.07227        1.66628       13.24514
C          6.24194        1.13250       14.09169
H          3.86051        3.75926       12.71488
H          3.05462        1.38477       12.96261
N          7.65962        4.72516       15.35325
C          7.13184        5.68196       15.71970
C          6.43175        6.83046       16.22017
C          5.21497        6.63874       16.89319
C          4.54023        7.74510       17.39686
C          6.97479        8.11122       16.04617
H          4.81051        5.63137       17.01619
H          7.93008        8.21543       15.51791
N          8.13012        2.28636       16.76442
C          7.75486        2.72519       19.09142
C          7.32647        1.41640       19.29552
H          7.78496        3.44590       19.91028
C          5.79773        3.30674       13.52061
H          6.15516        4.33457       13.43941
C          8.13683        3.12071       17.81802
H          8.46346        4.14626       17.63765
H          3.59258        7.60985       17.92323
O          9.99675        0.56371       13.91998
S          4.76716       -0.32634       16.66635
S          4.03720       -3.41551       16.93140
C          4.95514        0.71273       13.75023
C          4.57340       -0.71729       13.92778
C          4.24643       -1.48956       12.80812
C          3.91463       -2.83542       12.94052
C          3.90497       -3.43191       14.19774
C          4.18718       -2.66563       15.33083
C          4.52085       -1.31014       15.20396
H          4.27463       -1.02564       11.81896
H          3.67431       -3.42887       12.05548
H          3.66699       -4.49285       14.30690
C          5.80120       -1.40306       17.63494
C          5.46127       -2.75745       17.75910
C          6.20717       -3.60033       18.58593
C          7.26788       -3.08238       19.32238
C          7.61154       -1.73857       19.20186
C          6.90338       -0.88864       18.34489
H          5.94614       -4.65905       18.65724
H          7.84267       -3.73581       19.98261
H          8.45932       -1.33739       19.76288
C          7.32841        0.53481       18.21519
H          6.99261        1.08281       20.28145
C          7.76910        1.01922       16.98175
H          7.83213        0.32673       16.14280
H          6.96115        0.38617       14.42992
C          5.07480        9.02468       17.22955
C          6.28416        9.20635       16.55729
H          6.69646       10.21027       16.43156
H          4.54140        9.89074       17.63006
Br         5.45316        6.40019       12.01255

C H O N S 0
Def2SVP
****
Mn 0
Def2TZVP
****
Br 0
S    6   1.00
 113286.3877600              0.14283037779D-02
  17009.6263030              0.10950417496D-01
   3870.1842567              0.54421006604D-01
   1093.0357227              0.19047907695
    356.39721797             0.39024642737
    123.12539643             0.30814432514
S    3   1.00
    236.74084007            -0.11228065671
     28.468661070            0.64775962312
     11.883443722            0.44235575986
S    3   1.00
     21.269633312           -0.22642576323
      3.6129226841           0.73823712008
      1.6626648969           0.42683868694
S    1   1.00
      0.34823793232          1.0000000
S    1   1.00
      0.13019031394          1.0000000
S    1   1.00
      0.50966709763D-01      1.0000000
P    5   1.00
   1560.2801881              0.87166669072D-02
    368.47859205             0.66243637420D-01
    117.22978849             0.26495610385
     42.648909248            0.53839160587
     16.087225096            0.36579387888
P    3   1.00
      8.6352810058           0.34248787366
      3.5613665502           0.57500678213
      1.5292626609           0.24330394172
P    1   1.00
      0.53064294848          1.0000000
P    1   1.00
      0.15702758965          1.0000000
P    1   1.00
      0.39636841846D-01      1.0000000
D    4   1.00
    104.85518642             0.22650147581D-01
     30.281143688            0.13455483230
     10.651394267            0.36474454537
      3.8699456233           0.49044587056
D    1   1.00
      1.3240876762            .27137289040
D    1   1.00
      0.3890000              1.0000000
D    1   1.00
      0.96543342393D-01      1.0000000
****

