%Chk=checkpoint.chk
%NProcShared=12
# wB97XD Gen Opt=(QST3) SCRF=(Solvent=TetraHydroFuran)

Mn Transition State Reactant

0 1
  Mn  8.61563912776243      3.04629177434951     14.76070099391005
  C   10.21396377170644      3.64360260196898     15.42930249235413
  O   11.22486899185599      3.93737564931909     15.86874860141862
  C   8.95740433446469      3.75281503661877     13.10526089795246
  O   9.15418223191917      4.13703385261584     12.04907486205854
  C   9.43670683443093      1.50442516479936     14.25827527788890
  N   6.65512385660562      2.40027515422778     14.02026539119715
  C   4.51203619841337      2.98076804560843     13.11517861920710
  C   4.07226865536226      1.66628198053198     13.24513793955409
  C   6.24193609653678      1.13249852220896     14.09169149025729
  H   3.86050836610510      3.75926469607665     12.71488269974068
  H   3.05461726664042      1.38476878008014     12.96261197396406
  N   7.65961584403897      4.72515619531673     15.35324901937754
  C   7.13183797994893      5.68196368664763     15.71969887154033
  C   6.43175286389504      6.83045955724086     16.22016668854027
  C   5.21497108448582      6.63874157069684     16.89318651595836
  C   4.54023241475033      7.74510094993810     17.39686349017739
  C   6.97478839668829      8.11121760675575     16.04617455736397
  H   4.81050905353475      5.63136847662012     17.01619132245305
  H   7.93007957519367      8.21543369274016     15.51791191645997
  N   8.13012032416246      2.28636325219374     16.76442463993432
  C   7.75485583625596      2.72519374355219     19.09141833777020
  C   7.32647326754613      1.41640086863441     19.29551574746724
  H   7.78495666695766      3.44589979805953     19.91028036776489
  C   5.79773259839765      3.30673542609112     13.52061497491626
  H   6.15515603767482      4.33457231240390     13.43940541762299
  C   8.13682511783261      3.12070988665795     17.81801827862787
  H   8.46346034491197      4.14625656346934     17.63765031356573
  H   3.59258015438257      7.60985285196607     17.92323146229949
  O   9.99675494957600      0.56370974917006     13.91997562042907
  S   4.76716074201138     -0.32634483460587     16.66634849355576
  S   4.03720179595758     -3.41551208123127     16.93140028511209
  C   4.95513654991666      0.71272931453481     13.75022936487836
  C   4.57340315366809     -0.71728762668796     13.92778267174074
  C   4.24643147889141     -1.48956386827941     12.80812259346276
  C   3.91463215447227     -2.83541576829983     12.94052196409837
  C   3.90497040614230     -3.43191346170913     14.19774213095614
  C   4.18718428948798     -2.66562876719337     15.33083315683902
  C   4.52085042902771     -1.31014377797181     15.20395612567381
  H   4.27463274022376     -1.02564399442774     11.81896107534629
  H   3.67431180890148     -3.42887398005085     12.05548463697366
  H   3.66699382907008     -4.49284710958178     14.30689642590047
  C   5.80119909179004     -1.40305601378759     17.63494446291645
  C   5.46127277319554     -2.75745135690132     17.75910481140825
  C   6.20717238608323     -3.60032721505610     18.58592915205103
  C   7.26788010449323     -3.08238000035253     19.32237511919459
  C   7.61154236323391     -1.73857426254986     19.20185947141198
  C   6.90337916292171     -0.88863946986440     18.34488539007003
  H   5.94613634416365     -4.65904655970983     18.65723911002604
  H   7.84267213834216     -3.73581184790716     19.98260597671588
  H   8.45931952333370     -1.33738564913114     19.76288452171420
  C   7.32841198059412      0.53480815783203     18.21519104429211
  H   6.99260942804380      1.08280651329098     20.28144723930954
  C   7.76909702716517      1.01922165991159     16.98175261394837
  H   7.83213220773347      0.32672673886675     16.14279815177499
  H   6.96114644569053      0.38617480890717     14.42991819950095
  C   5.07480143819866      9.02468202819492     17.22955110374950
  C   6.28416484197178      9.20635459453951     16.55729241517637
  H   6.69646231968786     10.21026570615455     16.43155651893489
  H   4.54139843569096      9.89073783678517     17.63005835069524
  Br  10.12246457205869      7.28486942832137     14.25958323139933

Mn Transition State Product

0 1
 Mn  8.78768751208533      2.99011127923784     14.21266737911569
  C   10.46981787959083      3.50972651179785     14.64234037067392
  O   11.52623764953696      3.84686530089447     14.92603856267795
  C   9.00163383332690      3.43765216439598     12.46724535785521
  O   9.12199575713920      3.72323601214731     11.36543262168869
  C   9.38131638811644      1.33121631929124     13.87076559433958
  N   6.71150557527188      2.48436811795648     13.81864218111938
  C   4.45444611404631      3.09297834468659     13.29389159694123
  C   4.02292732863933      1.78501933629185     13.49496487775823
  C   6.29599350464906      1.22234088678479     13.95901712991778
  H   3.75401239922599      3.88118284693371     13.01254102405633
  H   2.96846303498543      1.51810555846969     13.38787191002258
  N   5.08800207443592      3.47347213981542     16.84719711992710
  C   5.11287253473155      4.62988784577714     16.88593843967189
  C   5.16760912573011      6.06803800567884     16.92591860035970
  C   4.57513666562440      6.81369043891708     15.89851804181516
  C   4.65422074491845      8.20242675070247     15.92965611129629
  C   5.83456218692533      6.70709184556228     17.97941327383991
  H   4.06357449376446      6.30306678890853     15.08014717073171
  H   6.29417201963785      6.11384044559477     18.77274885303229
  N   8.39191131989041      2.54356550519575     16.30703460271932
  C   8.22035616542359      3.19947833645624     18.60446134761018
  C   7.82438306581281      1.91664926532556     18.97258092647614
  H   8.31908567684376      3.99416056012092     19.34610438433148
  C   5.79478885144780      3.40468469505266     13.48051210161598
  H   6.15663692524310      4.42954342902412     13.37657538217995
  C   8.48007713426520      3.47598825226849     17.26857366670589
  H   8.75525531880192      4.48160618785630     16.94358639424851
  H   4.19503611351964      8.78855609017539     15.13013401513843
  O   9.83642401512316      0.30849011218628     13.60623939949545
  S   5.04386330677732     -0.08365991154000     16.78738537208611
  S   4.47581420588794     -3.18536786519095     17.25718609652521
  C   4.96549563971428      0.81917309485433     13.84466373173913
  C   4.61876661082079     -0.60832286041544     14.10628862608944
  C   4.21824726752446     -1.43840367745975     13.05461980179264
  C   3.95150568239597     -2.78806506901454     13.27329277173121
  C   4.08329923055543     -3.33075793842468     14.54840267165459
  C   4.43819844240134     -2.50593402110864     15.61842189722959
  C   4.70288052451474     -1.14668716358500     15.40470644455766
  H   4.13786526863385     -1.01829171126153     12.04887258706058
  H   3.65529293812665     -3.42788669257863     12.43885823218508
  H   3.90002402496173     -4.39429677686671     14.72020021359886
  C   6.20616987588167     -1.07189579326083     17.69972884118165
  C   5.93734553882456     -2.42946332801588     17.92302261364237
  C   6.78924943390022     -3.19594895237238     18.72147258798575
  C   7.88676712941230     -2.59563173394939     19.33140450196692
  C   8.16506155494680     -1.25022868523044     19.10391934994037
  C   7.34978522610694     -0.47740680271569     18.26925609763077
  H   6.58361508305532     -4.25860106488727     18.87232847361109
  H   8.54304956468796     -3.18911324490473     19.97214947935535
  H   9.04605824528040     -0.78964687932775     19.55817699956606
  C   7.72792824437423      0.93779149848586     17.98373667775553
  H   7.59260905621140      1.67801321360625     20.01388043177703
  C   8.04718772736438      1.30703083765827     16.67620629023917
  H   8.02560966293601      0.53859996338023     15.90360576728757
  H   7.05069156480114      0.46472280979683     14.17344699765960
  C   5.32028341084502      8.84254643760049     16.97597137623370
  C   5.90799033206029      8.09666506793566     17.99878562694758
  H   6.42716312420139      8.60041222949803     18.81756322616587
  H   5.38196438520946      9.93364554264663     16.99511607703579
  Br  8.21820228883105      5.50804110314237     14.55493270050406

Mn Transition State Inital Guess

0 1
Mn         8.935177        3.043923        14.633216
C          10.616286       3.356203        15.323058
O          11.652293       3.316950        15.817259
C          9.283326        3.508844        12.884213
O          9.426105        3.568964        11.746099
C          9.554985        1.428872        14.193133
N          6.922976        2.530359        13.872603
C          4.861350        3.225776        12.864492
C          4.298018        1.972599        13.093021
C          6.394100        1.317261        14.033054
H          4.294212        4.022807        12.380632
H          3.263957        1.761736        12.807909
N          7.779647        4.642211        15.356671
C          7.052805        5.420016        15.800034
C          6.161039        6.404041        16.345205
C          5.020704        5.988414        17.048292
C          4.156287        6.946386        17.568060
C          6.438498        7.766465        16.163044
H          4.820432        4.922493        17.179061
H          7.331984        8.069928        15.612686
N          8.452536        2.367887        16.683891
C          8.206409        2.876616        19.014407
C          7.639279        1.626884        19.252096
H          8.344617        3.599584        19.820240
C          6.165102        3.464097        13.274891
H          6.623037        4.443745        13.121296
C          8.589462        3.207846        17.722713
H          9.024115        4.186717        17.508590
H          3.265097        6.632608        18.116476
O          9.983331        0.399686        13.894844
S          4.854673        0.079531        16.676660
S          3.824802       -2.908262        17.066473
C          5.079625        0.986897        13.694870
C          4.569528       -0.390014        13.952731
C          4.151702       -1.173800        12.871203
C          3.697750       -2.476045        13.060920
C          3.652164       -3.017991        14.341264
C          4.023843       -2.236699        15.437622
C          4.485229       -0.925567        15.253327
H          4.208052       -0.754752        11.863419
H          3.391051       -3.078974        12.203173
H          3.317125       -4.046272        14.497712
C          5.792031       -1.059605        17.674990
C          5.319098       -2.367771        17.852413
C          5.983011       -3.252654        18.704558
C          7.098047       -2.819889        19.414720
C          7.574065       -1.523024        19.242645
C          6.947475       -0.634511        18.360640
H          5.614958       -4.275467        18.816444
H          7.608968       -3.503893        20.096178
H          8.463020       -1.190542        19.784780
C          7.512906        0.734463        18.187856
H          7.301929        1.345563        20.253133
C          7.965845        1.152299        16.933788
H          7.935588        0.448215        16.102930
H          7.038706        0.540499        14.444017
C          4.427054        8.303915        17.387485
C          5.563658        8.712681        16.687733
H          5.770363        9.776402        16.549682
H          3.742259        9.051887        17.795335
Br         10.186432       5.701534        14.114475

C H O N S 0
Def2SVP
****
Mn 0
Def2TZVP
****
Br 0
S    6   1.00
 113286.3877600              0.14283037779D-02
  17009.6263030              0.10950417496D-01
   3870.1842567              0.54421006604D-01
   1093.0357227              0.19047907695
    356.39721797             0.39024642737
    123.12539643             0.30814432514
S    3   1.00
    236.74084007            -0.11228065671
     28.468661070            0.64775962312
     11.883443722            0.44235575986
S    3   1.00
     21.269633312           -0.22642576323
      3.6129226841           0.73823712008
      1.6626648969           0.42683868694
S    1   1.00
      0.34823793232          1.0000000
S    1   1.00
      0.13019031394          1.0000000
S    1   1.00
      0.50966709763D-01      1.0000000
P    5   1.00
   1560.2801881              0.87166669072D-02
    368.47859205             0.66243637420D-01
    117.22978849             0.26495610385
     42.648909248            0.53839160587
     16.087225096            0.36579387888
P    3   1.00
      8.6352810058           0.34248787366
      3.5613665502           0.57500678213
      1.5292626609           0.24330394172
P    1   1.00
      0.53064294848          1.0000000
P    1   1.00
      0.15702758965          1.0000000
P    1   1.00
      0.39636841846D-01      1.0000000
D    4   1.00
    104.85518642             0.22650147581D-01
     30.281143688            0.13455483230
     10.651394267            0.36474454537
      3.8699456233           0.49044587056
D    1   1.00
      1.3240876762            .27137289040
D    1   1.00
      0.3890000              1.0000000
D    1   1.00
      0.96543342393D-01      1.0000000
****

