%NProcShared=12
%Chk=checkpoint.chk
# wB97XD Gen SCRF=(Solvent=TetraHydroFuran) Opt

Thian Prod Optimization

0 1
  Mn  6.36587666527479      3.47442038913838     16.21991896774874
  C   7.50595516308174      4.47423456758303     17.22515816532733
  O   8.20132915647942      5.06926939262488     17.91160699626026
  C   6.25306458714710      4.64886165647972     14.83815623456064
  O   6.12728742314959      5.33918165071086     13.93413876842411
  C   7.76356710157688      2.68602050724713     15.42108954079032
  N   4.88624836978807      2.24029390277763     15.23665306063589
  C   2.62730871520072      1.75257892065390     14.60324564177277
  C   2.99940821417686      0.49797692370762     14.12903349325245
  C   5.24156846997875      1.05093626801139     14.73992909501671
  H   1.58934412310203      2.08710499231191     14.56273945834148
  H   2.25759965019134     -0.19088740438665     13.71676533999056
  N   9.42718145829237      5.87773185620514     14.87564287165977
  C   8.87211626375794      6.87246853341393     15.08065067757979
  C   8.15647034117171      8.09582103256726     15.33890472199248
  C   6.95426679296771      8.05699919803979     16.06021512797638
  C   6.26296673620120      9.24057104398004     16.29858074168672
  C   8.66257955570331      9.31252570945832     14.85996494703615
  H   6.55641316418807      7.10870922792453     16.43045610237255
  H   9.59864719079078      9.32882724240441     14.29745979184755
  N   6.27115747287303      1.99141033806637     17.80584917964699
  C   5.58206037615446      1.28250500201973     19.98834911306516
  C   6.06102799061498     -0.00367569503770     19.75489218834242
  H   5.10705673212813      1.54556813986967     20.93504966837480
  C   3.59087958680672      2.58354641240198     15.16024692394605
  H   3.32551130692726      3.55806756457530     15.57540138768042
  C   5.69288069280450      2.24232357729039     18.99078541775690
  H   5.29635824189474      3.25057957029524     19.12840818608898
  H   5.32597377455195      9.21260044654377     16.85992371589039
  O   8.69707394614443      2.25949808540279     14.90267717496390
  S   4.98029173341684     -1.83597396062982     16.46737053476085
  S   6.23586043828038     -4.61485425979310     15.53148000082202
  C   4.34155200917474      0.12854485299386     14.20609659959769
  C   4.84827914962574     -1.20848426485396     13.77947437925081
  C   4.95109564920345     -1.53318785802275     12.42372162902227
  C   5.47744009513454     -2.75981458633026     12.02426494655008
  C   5.91448891787377     -3.67899252704166     12.97402761375374
  C   5.78085022792682     -3.38698349210324     14.33347497868266
  C   5.24495272519199     -2.15781819670467     14.73959483514272
  H   4.63198725399662     -0.80235942018663     11.67647955226109
  H   5.56575695768953     -2.99543997948093     10.96119262746565
  H   6.35186432974686     -4.63089107244412     12.66275003495081
  C   6.52350305250748     -2.39076695050723     17.15302450116164
  C   7.05584920704342     -3.62421573330032     16.75489242869888
  C   8.21763517731464     -4.11423019165458     17.35548815060263
  C   8.82418478193116     -3.39004830158560     18.37774519973776
  C   8.30613622485275     -2.15655142679474     18.76719283019039
  C   7.16803891724612     -1.63060397850002     18.14765272725576
  H   8.63812403027078     -5.06715618830691     17.02477909045092
  H   9.72198821264160     -3.78275560168757     18.86067884685313
  H   8.80136798761434     -1.57623372893530     19.54971849739266
  C   6.65678929221581     -0.27979689331538     18.52475621822063
  H   5.96149878705135     -0.78585978544958     20.51191495712687
  C   6.75741886826933      0.76266295128892     17.60234218757022
  H   7.26015215744718      0.56779563526088     16.65413076919989
  H   6.30054653428282      0.79031685637320     14.76192785010213
  C   6.76386616431999     10.45321941463231     15.82330095527977
  C   7.96067704669374     10.48859977769708     15.10609520394197
  H   8.35021804188097     11.43889085395029     14.73361904061360
  H   6.21602359506869     11.37982148323436     16.01260808428133
  Br  4.54840317095790      5.02386751991442     17.34451202900988

C H O N S 0
Def2SVP
****
Mn 0
Def2TZVP
****
Br 0
S    6   1.00
 113286.3877600              0.14283037779D-02
  17009.6263030              0.10950417496D-01
   3870.1842567              0.54421006604D-01
   1093.0357227              0.19047907695
    356.39721797             0.39024642737
    123.12539643             0.30814432514
S    3   1.00
    236.74084007            -0.11228065671
     28.468661070            0.64775962312
     11.883443722            0.44235575986
S    3   1.00
     21.269633312           -0.22642576323
      3.6129226841           0.73823712008
      1.6626648969           0.42683868694
S    1   1.00
      0.34823793232          1.0000000
S    1   1.00
      0.13019031394          1.0000000
S    1   1.00
      0.50966709763D-01      1.0000000
P    5   1.00
   1560.2801881              0.87166669072D-02
    368.47859205             0.66243637420D-01
    117.22978849             0.26495610385
     42.648909248            0.53839160587
     16.087225096            0.36579387888
P    3   1.00
      8.6352810058           0.34248787366
      3.5613665502           0.57500678213
      1.5292626609           0.24330394172
P    1   1.00
      0.53064294848          1.0000000
P    1   1.00
      0.15702758965          1.0000000
P    1   1.00
      0.39636841846D-01      1.0000000
D    4   1.00
    104.85518642             0.22650147581D-01
     30.281143688            0.13455483230
     10.651394267            0.36474454537
      3.8699456233           0.49044587056
D    1   1.00
      1.3240876762            .27137289040
D    1   1.00
      0.3890000              1.0000000
D    1   1.00
      0.96543342393D-01      1.0000000
****

