%Chk=checkpoint.chk
%NProcShared=12
#wB97XD Gen Opt=(QST3) SCRF=(Solvent=TetraHydroFuran)

Anthracene Transition State Reactant

0 1
Mn -1.01940 -0.13282 -1.30041
C -1.95084 1.09527 -2.29845
O -2.50101 1.87539 -2.92239
C -1.94096 -1.55093 -2.01671
O -2.47772 -2.45176 -2.46467
C 0.20025 -0.27236 -2.64310
N 0.04927 -1.53221 -0.03083
C 0.07866 -3.04556 1.82820
C 1.46702 -3.12280 1.77993
C 1.37634 -1.67638 -0.11513
H -0.49205 -3.59310 2.57846
H 2.01871 -3.71611 2.51212
N -2.37065 0.02942 0.19031
C -3.16697 0.13023 1.01980
C -4.10539 0.26580 2.09209
C -3.62020 0.43566 3.39952
C -4.52704 0.57079 4.44399
C -5.48203 0.23058 1.82486
H -2.54534 0.46071 3.58681
H -5.82775 0.09615 0.79488
N 0.05018 1.50245 -0.35369
C 0.08073 3.37421 1.14383
C 1.47006 3.42805 1.09346
H -0.49002 4.07266 1.75603
C -0.58809 -2.23239 0.92237
H -1.67251 -2.14107 0.96102
C -0.58735 2.39419 0.42298
H -1.67305 2.32336 0.46813
H -4.16287 0.70328 5.46409
O 0.94147 -0.36186 -3.51126
C 3.71034 0.05692 0.59661
C 6.44285 0.00195 0.07986
C 2.14993 -2.41932 0.78562
C 3.63318 -2.42875 0.67238
C 4.33237 -3.60918 0.65808
C 5.74721 -3.62943 0.48325
C 6.44286 -2.47015 0.28898
C 5.76733 -1.20725 0.29051
C 4.35206 -1.18133 0.52939
H 3.79554 -4.55679 0.74485
H 6.26618 -4.58974 0.47691
H 7.52231 -2.48926 0.12265
C 4.35394 1.25516 0.28141
C 5.76945 1.23001 0.04342
C 6.44775 2.46555 -0.21061
C 5.75436 3.64152 -0.25402
C 4.33929 3.65908 -0.08147
C 3.63726 2.50702 0.16895
H 7.52743 2.44868 -0.37582
H 6.27529 4.58008 -0.45221
H 3.80437 4.60560 -0.18931
C 2.15352 2.52607 0.27520
H 2.02229 4.15802 1.68899
C 1.37923 1.61496 -0.45427
H 1.87683 0.94259 -1.15220
H 1.87309 -1.17143 -0.94303
C -5.89955 0.53687 4.18594
C -6.37363 0.36773 2.88435
H -7.44706 0.34214 2.68994
H -6.60706 0.64379 5.01079
Br -5.87537 -0.28615 -1.89241
H 7.52454 -0.01473 -0.07653
H 2.66679 0.08836 0.89635

Anthracene Transition State Product

0 1
Mn -1.44286 0.16026 -2.01412
C -2.20443 1.54882 -2.90891
O -2.68366 2.42731 -3.46349
C -2.21304 -1.07612 -3.10367
O -2.69804 -1.85971 -3.78172
C -0.01408 0.23546 -3.09485
N -0.60049 -1.44099 -0.81185
C -0.82342 -3.27125 0.71581
C 0.55737 -3.36677 0.85296
C 0.72520 -1.59130 -0.72767
H -1.48955 -3.94449 1.25661
H 1.00241 -4.09964 1.52935
N 0.07750 -0.17244 2.40410
C -1.05369 -0.19765 2.64732
C -2.45976 -0.23136 2.94445
C -3.12645 -1.46210 3.01383
C -4.49389 -1.48788 3.26678
C -3.15853 0.96659 3.14480
H -2.57220 -2.38909 2.86463
H -2.62937 1.91849 3.09601
N -0.59083 1.56154 -0.58857
C -0.80429 3.14130 1.19825
C 0.57690 3.20654 1.34817
H -1.46646 3.72850 1.83564
C -1.36380 -2.28301 -0.09733
H -2.44255 -2.14076 -0.17604
C -1.34964 2.29100 0.24463
H -2.42913 2.16919 0.14486
H -5.01736 -2.44419 3.31559
O 0.86165 0.28730 -3.83871
C 2.91235 -0.04746 0.58557
C 5.69235 -0.04273 0.41158
C 1.36924 -2.49754 0.12252
C 2.85402 -2.50630 0.21569
C 3.56205 -3.67493 0.08887
C 4.98786 -3.68132 0.09599
C 5.69088 -2.51399 0.19056
C 5.00769 -1.26191 0.32192
C 3.57322 -1.26107 0.38259
H 3.02896 -4.61681 -0.06081
H 5.51371 -4.63251 -0.00729
H 6.78300 -2.51728 0.16154
C 3.58071 1.17889 0.56648
C 5.01522 1.18024 0.50650
C 5.70587 2.43375 0.56536
C 5.00976 3.60611 0.64834
C 3.58394 3.60941 0.64000
C 2.86897 2.43926 0.58848
H 6.79801 2.43509 0.53708
H 5.54131 4.55882 0.69009
H 3.05653 4.56629 0.63458
C 1.38429 2.45343 0.49431
H 1.02578 3.82526 2.12808
C 0.73572 1.68987 -0.48314
H 1.34033 1.15471 -1.21400
H 1.33286 -0.95580 -1.37019
C -5.19354 -0.29487 3.45284
C -4.52569 0.92909 3.39758
H -5.07398 1.86057 3.54798
H -6.26798 -0.31941 3.64516
Br -3.72263 0.07153 -0.71897
H 1.84487 -0.05936 0.78995
H 6.78538 -0.04496 0.39399

Anthracene Transition State Initial Guess

0 1
Mn -1.029945 -0.178453 -2.198861
C -1.746903 1.018037 -3.387390
O -2.062843 1.771540 -4.188397
C -1.769124 -1.601370 -3.097653
O -2.099640 -2.509333 -3.711661
C 0.364384 -0.306186 -3.279758
N -0.226640 -1.649886 -0.912369
C -0.630117 -3.381108 0.694324
C 0.701623 -3.346594 1.101164
C 1.069079 -1.706270 -0.590823
H -1.347070 -4.059540 1.163292
H 1.047719 -3.981648 1.921137
N -2.016302 0.030059 0.153573
C -2.374841 0.153734 1.246672
C -2.850593 0.303219 2.598302
C -1.944277 0.494346 3.647062
C -2.421861 0.643341 4.949333
C -4.226110 0.258162 2.849392
H -0.877053 0.529806 3.435524
H -4.914317 0.108895 2.014741
N -0.211022 1.475794 -1.206267
C -0.614230 3.432449 0.116449
C 0.724478 3.482791 0.495170
H -1.335126 4.160029 0.491724
C -1.057437 -2.508386 -0.295245
H -2.110109 -2.472720 -0.589683
C -1.044114 2.410860 -0.718221
H -2.099248 2.313109 -0.986020
H -1.723476 0.795000 5.772378
O 1.236587 -0.399803 -4.029534
C 3.061857 0.078720 0.750201
C 5.823920 0.099069 1.096432
C 1.592703 -2.490339 0.446423
C 3.038763 -2.420469 0.804816
C 3.754185 -3.573718 1.010861
C 5.153931 -3.548798 1.290984
C 5.835509 -2.367311 1.317079
C 5.147499 -1.127688 1.099270
C 3.725557 -1.144349 0.890432
H 3.253159 -4.541422 0.922775
H 5.679429 -4.493679 1.452398
H 6.914564 -2.344980 1.495644
C 3.740695 1.297370 0.640802
C 5.163037 1.308249 0.845371
C 5.865445 2.558932 0.800446
C 5.195367 3.717750 0.537777
C 3.792256 3.702583 0.272734
C 3.065052 2.538454 0.308922
H 6.946056 2.562140 0.973626
H 5.732567 4.669718 0.499769
H 3.299415 4.638668 -0.002878
C 1.615047 2.546514 -0.034929
H 1.074122 4.238744 1.204171
C 1.086862 1.600963 -0.923764
H 1.761935 0.907820 -1.424126
H 1.745204 -1.091136 -1.186338
C -3.789012 0.598355 5.203327
C -4.688612 0.406012 4.157385
H -5.756565 0.369816 4.364507
H -4.158537 0.714592 6.228827
Br -4.063768 -0.107959 -2.096772
H 6.903053 0.111756 1.280604
H 1.974201 0.083189 0.713663

C H O N 0
Def2SVP
****
Mn 0
Def2TZVP
****
Br 0
S    6   1.00
 113286.3877600              0.14283037779D-02
  17009.6263030              0.10950417496D-01
   3870.1842567              0.54421006604D-01
   1093.0357227              0.19047907695
    356.39721797             0.39024642737
    123.12539643             0.30814432514
S    3   1.00
    236.74084007            -0.11228065671
     28.468661070            0.64775962312
     11.883443722            0.44235575986
S    3   1.00
     21.269633312           -0.22642576323
      3.6129226841           0.73823712008
      1.6626648969           0.42683868694
S    1   1.00
      0.34823793232          1.0000000
S    1   1.00
      0.13019031394          1.0000000
S    1   1.00
      0.50966709763D-01      1.0000000
P    5   1.00
   1560.2801881              0.87166669072D-02
    368.47859205             0.66243637420D-01
    117.22978849             0.26495610385
     42.648909248            0.53839160587
     16.087225096            0.36579387888
P    3   1.00
      8.6352810058           0.34248787366
      3.5613665502           0.57500678213
      1.5292626609           0.24330394172
P    1   1.00
      0.53064294848          1.0000000
P    1   1.00
      0.15702758965          1.0000000
P    1   1.00
      0.39636841846D-01      1.0000000
D    4   1.00
    104.85518642             0.22650147581D-01
     30.281143688            0.13455483230
     10.651394267            0.36474454537
      3.8699456233           0.49044587056
D    1   1.00
      1.3240876762            .27137289040
D    1   1.00
      0.3890000              1.0000000
D    1   1.00
      0.96543342393D-01      1.0000000
****

