%NProcShared=12
%Chk=checkpoint.chk
# wB97XD Gen SCRF=(Solvent=TetraHydroFuran) Opt

Thian React Optimization

0 1
Mn       8.6156390000      3.0462920000     14.7607010000                 
C       10.2139640000      3.6436030000     15.4293020000                 
O       11.2248690000      3.9373760000     15.8687490000                 
C        8.9574040000      3.7528150000     13.1052610000                 
O        9.1541820000      4.1370340000     12.0490750000                 
C        9.4367070000      1.5044250000     14.2582750000                 
N        6.6551240000      2.4002750000     14.0202650000                 
C        4.5120360000      2.9807680000     13.1151790000                 
C        4.0722690000      1.6662820000     13.2451380000                 
C        6.2419360000      1.1324990000     14.0916910000                 
H        3.8605080000      3.7592650000     12.7148830000                 
H        3.0546170000      1.3847690000     12.9626120000                 
N        7.6596160000      4.7251560000     15.3532490000                 
C        7.1318380000      5.6819640000     15.7196990000                 
C        6.4317530000      6.8304600000     16.2201670000                 
C        5.2149710000      6.6387420000     16.8931870000                 
C        4.5402320000      7.7451010000     17.3968630000                 
C        6.9747880000      8.1112180000     16.0461750000                 
H        4.8105090000      5.6313680000     17.0161910000                 
H        7.9300800000      8.2154340000     15.5179120000                 
N        8.1301200000      2.2863630000     16.7644250000                 
C        7.7548560000      2.7251940000     19.0914180000                 
C        7.3264730000      1.4164010000     19.2955160000                 
H        7.7849570000      3.4459000000     19.9102800000                 
C        5.7977330000      3.3067350000     13.5206150000                 
H        6.1551560000      4.3345720000     13.4394050000                 
C        8.1368250000      3.1207100000     17.8180180000                 
H        8.4634600000      4.1462570000     17.6376500000                 
H        3.5925800000      7.6098530000     17.9232310000                 
O        9.9967550000      0.5637100000     13.9199760000                 
S        4.7671610000     -0.3263450000     16.6663480000                 
S        4.0372020000     -3.4155120000     16.9314000000                 
C        4.9551370000      0.7127290000     13.7502290000                 
C        4.5734030000     -0.7172880000     13.9277830000                 
C        4.2464310000     -1.4895640000     12.8081230000                 
C        3.9146320000     -2.8354160000     12.9405220000                 
C        3.9049700000     -3.4319130000     14.1977420000                 
C        4.1871840000     -2.6656290000     15.3308330000                 
C        4.5208500000     -1.3101440000     15.2039560000                 
H        4.2746330000     -1.0256440000     11.8189610000                 
H        3.6743120000     -3.4288740000     12.0554850000                 
H        3.6669940000     -4.4928470000     14.3068960000                 
C        5.8011990000     -1.4030560000     17.6349440000                 
C        5.4612730000     -2.7574510000     17.7591050000                 
C        6.2071720000     -3.6003270000     18.5859290000                 
C        7.2678800000     -3.0823800000     19.3223750000                 
C        7.6115420000     -1.7385740000     19.2018590000                 
C        6.9033790000     -0.8886390000     18.3448850000                 
H        5.9461360000     -4.6590470000     18.6572390000                 
H        7.8426720000     -3.7358120000     19.9826060000                 
H        8.4593200000     -1.3373860000     19.7628850000                 
C        7.3284120000      0.5348080000     18.2151910000                 
H        6.9926090000      1.0828070000     20.2814470000                 
C        7.7690970000      1.0192220000     16.9817530000                 
H        7.8321320000      0.3267270000     16.1427980000                 
H        6.9611460000      0.3861750000     14.4299180000                 
C        5.0748010000      9.0246820000     17.2295510000                 
C        6.2841650000      9.2063550000     16.5572920000                 
H        6.6964620000     10.2102660000     16.4315570000                 
H        4.5413980000      9.8907380000     17.6300580000                 
Br       6.0279351271      6.2647547871     12.3976960651                 

C H O N S 0
Def2SVP
****
Mn 0
Def2TZVP
****
Br 0
S    6   1.00
 113286.3877600              0.14283037779D-02
  17009.6263030              0.10950417496D-01
   3870.1842567              0.54421006604D-01
   1093.0357227              0.19047907695
    356.39721797             0.39024642737
    123.12539643             0.30814432514
S    3   1.00
    236.74084007            -0.11228065671
     28.468661070            0.64775962312
     11.883443722            0.44235575986
S    3   1.00
     21.269633312           -0.22642576323
      3.6129226841           0.73823712008
      1.6626648969           0.42683868694
S    1   1.00
      0.34823793232          1.0000000
S    1   1.00
      0.13019031394          1.0000000
S    1   1.00
      0.50966709763D-01      1.0000000
P    5   1.00
   1560.2801881              0.87166669072D-02
    368.47859205             0.66243637420D-01
    117.22978849             0.26495610385
     42.648909248            0.53839160587
     16.087225096            0.36579387888
P    3   1.00
      8.6352810058           0.34248787366
      3.5613665502           0.57500678213
      1.5292626609           0.24330394172
P    1   1.00
      0.53064294848          1.0000000
P    1   1.00
      0.15702758965          1.0000000
P    1   1.00
      0.39636841846D-01      1.0000000
D    4   1.00
    104.85518642             0.22650147581D-01
     30.281143688            0.13455483230
     10.651394267            0.36474454537
      3.8699456233           0.49044587056
D    1   1.00
      1.3240876762            .27137289040
D    1   1.00
      0.3890000              1.0000000
D    1   1.00
      0.96543342393D-01      1.0000000
****

