%Chk=checkpoint.chk
%NProcShared=12
# wB97XD Gen Opt=(QST3) SCRF=(Solvent=TetraHydroFuran)

Mn Transition State Reactant

0 1
Mn  8.53942910552494      3.05135554485312     14.82234263823743
C   10.14404715966570      3.62325269310871     15.48179798928725
O   11.14602868323303      3.97827591894200     15.89999016110864
C   8.87994341079180      3.72439408404949     13.15804512282289
O   9.08475792221453      4.14211220197372     12.11476121575881
C   9.27411679604276      1.45385216578136     14.35118426175354
N   6.57070378306442      2.41643803654901     14.11441675633001
C   4.38528333781071      2.96878362880397     13.30296459114590
C   3.99070147072523      1.63963532026062     13.37937145651504
C   6.18921609902384      1.13786078082100     14.15491556474015
H   3.69327925365569      3.74878085265432     12.98495522521118
H   2.97230015111939      1.34022823149098     13.12043234989951
N   7.65768245855465      4.79660679619823     15.39119094545293
C   7.11172632989789      5.74385782705780     15.76020709883253
C   6.46246643511386      6.93803608068944     16.22464051300752
C   5.21452478775181      6.84186524355117     16.85626825998844
C   4.60770531070687      8.01076581032826     17.30908301244166
C   7.09975390772373      8.17718908730575     16.04616706049631
H   4.75458382297141      5.84973924519144     16.98463637717417
H   8.07330387930534      8.22829556935112     15.55356983198626
N   8.02313692782018      2.29526556512146     16.81764274519027
C   7.47701750940327      2.70608518861082     19.11462032761313
C   7.13492073636805      1.37322348089707     19.30058794603649
H   7.37815085062742      3.43522651472523     19.91914790966782
C   5.66930393206470      3.31482337407037     13.69336126136471
H   5.98652739602439      4.35695441390807     13.67160222810076
C   7.89857587478250      3.12551684602355     17.86260049529563
H   8.14241518644100      4.17318319807696     17.69008863827030
H   3.63667361931658      7.94768604907221     17.80488679054247
O   9.74032809952479      0.45241049237659     14.05281429147712
S   4.78343212210379     -0.43500501505506     16.67121753312056
S   4.20437558420516     -3.59257373126286     16.83850170046764
C   4.91164792028417      0.69147325340125     13.82144698386896
C   4.58351041308113     -0.75849712898346     13.94132823407859
C   4.28211406400321     -1.50067701279243     12.79503073531812
C   4.01537876517193     -2.86486732810448     12.87613183410371
C   4.05017077586464     -3.50781914837724     14.10941940939355
C   4.30478032152537     -2.77390072108040     15.26986739872107
C   4.56991108874406     -1.39973606877876     15.19532832145208
H   4.28156941390237     -0.99701592852331     11.82502894238488
H   3.79544842217002     -3.43447412969850     11.97054949039885
H   3.86854885669964     -4.58254756107607     14.18432059515091
C   5.85066304662794     -1.50746759250501     17.60133800332055
C   5.59016832042975     -2.88197716965815     17.68373114906831
C   6.38533598962062     -3.70420526603154     18.48496429486986
C   7.41481177301961     -3.15107327027484     19.23953615529140
C   7.67964647111691     -1.78641708426988     19.16066005153640
C   6.92238880928658     -0.95541088140323     18.32893850251778
H   6.18231374830917     -4.77720842710353     18.51834747786377
H   8.02551284459011     -3.79115212401438     19.88015985267087
H   8.50366321082712     -1.35166118491703     19.73214844430976
C   7.25932247501632      0.49370516607213     18.22665576774860
H   6.75528435586367      1.01766675714439     20.26149539451520
C   7.72688274145157      1.00925430119675     17.01896042932256
H   7.87101210035240      0.32357396868451     16.18358758655415
H   6.93183534568475      0.40046487305052     14.46080156230379
C   5.23274247518604      9.24457511471971     17.13767925546577
C   6.47699626981006      9.32980622192362     16.50692266643435
H   6.96218760270919     10.29971203460422     16.37842597476359
H   4.74902567152330     10.15478582943022     17.50155669204932
Br  4.50673476354686      3.37373901183829     16.98582649518106

Mn Transition State Product

0 1
Mn  6.36587666527479      3.47442038913838     16.21991896774874
C   7.50595516308174      4.47423456758303     17.22515816532733
O   8.20132915647942      5.06926939262488     17.91160699626026
C   6.25306458714710      4.64886165647972     14.83815623456064
O   6.12728742314959      5.33918165071086     13.93413876842411
C   7.76356710157688      2.68602050724713     15.42108954079032
N   4.88624836978807      2.24029390277763     15.23665306063589
C   2.62730871520072      1.75257892065390     14.60324564177277
C   2.99940821417686      0.49797692370762     14.12903349325245
C   5.24156846997875      1.05093626801139     14.73992909501671
H   1.58934412310203      2.08710499231191     14.56273945834148
H   2.25759965019134     -0.19088740438665     13.71676533999056
N   9.42718145829237      5.87773185620514     14.87564287165977
C   8.87211626375794      6.87246853341393     15.08065067757979
C   8.15647034117171      8.09582103256726     15.33890472199248
C   6.95426679296771      8.05699919803979     16.06021512797638
C   6.26296673620120      9.24057104398004     16.29858074168672
C   8.66257955570331      9.31252570945832     14.85996494703615
H   6.55641316418807      7.10870922792453     16.43045610237255
H   9.59864719079078      9.32882724240441     14.29745979184755
N   6.27115747287303      1.99141033806637     17.80584917964699
C   5.58206037615446      1.28250500201973     19.98834911306516
C   6.06102799061498     -0.00367569503770     19.75489218834242
H   5.10705673212813      1.54556813986967     20.93504966837480
C   3.59087958680672      2.58354641240198     15.16024692394605
H   3.32551130692726      3.55806756457530     15.57540138768042
C   5.69288069280450      2.24232357729039     18.99078541775690
H   5.29635824189474      3.25057957029524     19.12840818608898
H   5.32597377455195      9.21260044654377     16.85992371589039
O   8.69707394614443      2.25949808540279     14.90267717496390
S   4.98029173341684     -1.83597396062982     16.46737053476085
S   6.23586043828038     -4.61485425979310     15.53148000082202
C   4.34155200917474      0.12854485299386     14.20609659959769
C   4.84827914962574     -1.20848426485396     13.77947437925081
C   4.95109564920345     -1.53318785802275     12.42372162902227
C   5.47744009513454     -2.75981458633026     12.02426494655008
C   5.91448891787377     -3.67899252704166     12.97402761375374
C   5.78085022792682     -3.38698349210324     14.33347497868266
C   5.24495272519199     -2.15781819670467     14.73959483514272
H   4.63198725399662     -0.80235942018663     11.67647955226109
H   5.56575695768953     -2.99543997948093     10.96119262746565
H   6.35186432974686     -4.63089107244412     12.66275003495081
C   6.52350305250748     -2.39076695050723     17.15302450116164
C   7.05584920704342     -3.62421573330032     16.75489242869888
C   8.21763517731464     -4.11423019165458     17.35548815060263
C   8.82418478193116     -3.39004830158560     18.37774519973776
C   8.30613622485275     -2.15655142679474     18.76719283019039
C   7.16803891724612     -1.63060397850002     18.14765272725576
H   8.63812403027078     -5.06715618830691     17.02477909045092
H   9.72198821264160     -3.78275560168757     18.86067884685313
H   8.80136798761434     -1.57623372893530     19.54971849739266
C   6.65678929221581     -0.27979689331538     18.52475621822063
H   5.96149878705135     -0.78585978544958     20.51191495712687
C   6.75741886826933      0.76266295128892     17.60234218757022
H   7.26015215744718      0.56779563526088     16.65413076919989
H   6.30054653428282      0.79031685637320     14.76192785010213
C   6.76386616431999     10.45321941463231     15.82330095527977
C   7.96067704669374     10.48859977769708     15.10609520394197
H   8.35021804188097     11.43889085395029     14.73361904061360
H   6.21602359506869     11.37982148323436     16.01260808428133
Br  4.54840317095790      5.02386751991442     17.34451202900988

Mn Transition State Inital Guess

0 1
Mn         7.724877        3.242066        15.249630
C          9.290558        3.891629        15.915263
O          10.308871       4.273509        16.274665
C          8.102699        3.965483        13.620900
O          8.406930        4.388334        12.600771
C          8.685678        1.806253        14.711637
N          6.128552        2.293221        14.095681
C          4.106110        2.481184        12.827675
C          3.856769        1.119043        12.976925
C          5.909923        0.982439        14.177789
H          3.417284        3.123210        12.275968
H          2.954086        0.669461        12.554808
N          7.204450        5.363568        15.608825
C          7.015127        6.480857        15.828293
C          6.634243        7.815945        16.199303
C          5.461493        7.983771        16.950985
C          5.075364        9.264957        17.330506
C          7.414812        8.919013        15.827843
H          4.868058        7.108817        17.227835
H          8.325528        8.771492        15.243540
N          7.729585        2.181434        17.171735
C          7.600133        2.220117        19.561906
C          7.290182        0.862308        19.592098
H          7.670046        2.802275        20.482378
C          5.233529        3.028958        13.421219
H          5.420136        4.104604        13.373840
C          7.787991        2.842162        18.336387
H          7.971953        3.918071        18.280110
H          4.163424        9.404191        17.915515
O          9.411271        1.003432        14.325163
S          4.810112       -0.885366        16.606913
S          4.444900       -4.045738        16.676924
C          4.777931        0.337920        13.676522
C          4.612348       -1.136005        13.832916
C          4.369065       -1.894767        12.680137
C          4.219568       -3.276621        12.736651
C          4.306261       -3.931690        13.959690
C          4.505228       -3.190899        15.126488
C          4.669725       -1.798445        15.079127
H          4.319773       -1.383340        11.715653
H          4.046588       -3.847150        11.821385
H          4.206060       -5.018249        14.019162
C          5.952494       -1.891567        17.539500
C          5.782192       -3.283891        17.554467
C          6.613631       -4.101449        18.322943
C          7.592086       -3.525971        19.125295
C          7.756551       -2.144575        19.131932
C          6.962563       -1.308180        18.335996
H          6.480486       -5.185754        18.296523
H          8.236770       -4.157693        19.740685
H          8.537175       -1.694726        19.750378
C          7.226546        0.158815        18.388245
H          7.098343        0.355744        20.541776
C          7.489448        0.872923        17.218951
H          7.499314        0.328170        16.276825
H          6.668864        0.377640        14.671202
C          5.850738        10.366727       16.963935
C          7.016248        10.194540       16.215676
H          7.620499        11.059907       15.933649
H          5.542630        11.371244       17.264991
Br         5.232222        3.543412        16.564471

C H O N S 0
Def2SVP
****
Mn 0
Def2TZVP
****
Br 0
S    6   1.00
 113286.3877600              0.14283037779D-02
  17009.6263030              0.10950417496D-01
   3870.1842567              0.54421006604D-01
   1093.0357227              0.19047907695
    356.39721797             0.39024642737
    123.12539643             0.30814432514
S    3   1.00
    236.74084007            -0.11228065671
     28.468661070            0.64775962312
     11.883443722            0.44235575986
S    3   1.00
     21.269633312           -0.22642576323
      3.6129226841           0.73823712008
      1.6626648969           0.42683868694
S    1   1.00
      0.34823793232          1.0000000
S    1   1.00
      0.13019031394          1.0000000
S    1   1.00
      0.50966709763D-01      1.0000000
P    5   1.00
   1560.2801881              0.87166669072D-02
    368.47859205             0.66243637420D-01
    117.22978849             0.26495610385
     42.648909248            0.53839160587
     16.087225096            0.36579387888
P    3   1.00
      8.6352810058           0.34248787366
      3.5613665502           0.57500678213
      1.5292626609           0.24330394172
P    1   1.00
      0.53064294848          1.0000000
P    1   1.00
      0.15702758965          1.0000000
P    1   1.00
      0.39636841846D-01      1.0000000
D    4   1.00
    104.85518642             0.22650147581D-01
     30.281143688            0.13455483230
     10.651394267            0.36474454537
      3.8699456233           0.49044587056
D    1   1.00
      1.3240876762            .27137289040
D    1   1.00
      0.3890000              1.0000000
D    1   1.00
      0.96543342393D-01      1.0000000
****

