%NProcShared=12
%Chk=checkpoint.chk
%Mem=1200MW
# wB97XD Gen SCRF=(Solvent=TetraHydroFuran)

Anth Prod Calculation

0 1
Mn        -1.44286        0.16026       -2.01412
C         -2.20443        1.54882       -2.90891
O         -2.68366        2.42731       -3.46349
C         -2.21304       -1.07612       -3.10367
O         -2.69804       -1.85971       -3.78172
C         -0.01408        0.23546       -3.09485
N         -0.60049       -1.44099       -0.81185
C         -0.82342       -3.27125        0.71581
C          0.55737       -3.36677        0.85296
C          0.72520       -1.59130       -0.72767
H         -1.48955       -3.94449        1.25661
H          1.00241       -4.09964        1.52935
N          0.07750       -0.17244        2.40410
C         -1.05369       -0.19765        2.64732
C         -2.45976       -0.23136        2.94445
C         -3.12645       -1.46210        3.01383
C         -4.49389       -1.48788        3.26678
C         -3.15853        0.96659        3.14480
H         -2.57220       -2.38909        2.86463
H         -2.62937        1.91849        3.09601
N         -0.59083        1.56154       -0.58857
C         -0.80429        3.14130        1.19825
C          0.57690        3.20654        1.34817
H         -1.46646        3.72850        1.83564
C         -1.36380       -2.28301       -0.09733
H         -2.44255       -2.14076       -0.17604
C         -1.34964        2.29100        0.24463
H         -2.42913        2.16919        0.14486
H         -5.01736       -2.44419        3.31559
O          0.86165        0.28730       -3.83871
C          2.91235       -0.04746        0.58557
C          5.69235       -0.04273        0.41158
C          1.36924       -2.49754        0.12252
C          2.85402       -2.50630        0.21569
C          3.56205       -3.67493        0.08887
C          4.98786       -3.68132        0.09599
C          5.69088       -2.51399        0.19056
C          5.00769       -1.26191        0.32192
C          3.57322       -1.26107        0.38259
H          3.02896       -4.61681       -0.06081
H          5.51371       -4.63251       -0.00729
H          6.78300       -2.51728        0.16154
C          3.58071        1.17889        0.56648
C          5.01522        1.18024        0.50650
C          5.70587        2.43375        0.56536
C          5.00976        3.60611        0.64834
C          3.58394        3.60941        0.64000
C          2.86897        2.43926        0.58848
H          6.79801        2.43509        0.53708
H          5.54131        4.55882        0.69009
H          3.05653        4.56629        0.63458
C          1.38429        2.45343        0.49431
H          1.02578        3.82526        2.12808
C          0.73572        1.68987       -0.48314
H          1.34033        1.15471       -1.21400
H          1.33286       -0.95580       -1.37019
C         -5.19354       -0.29487        3.45284
C         -4.52569        0.92909        3.39758
H         -5.07398        1.86057        3.54798
H         -6.26798       -0.31941        3.64516
Br        -3.72263        0.07153       -0.71897
H          1.84487       -0.05936        0.78995
H          6.78538       -0.04496        0.39399

C H O N Mn 0
Def2TZVPP
****
Br     0
S    8   1.00
 565073.2525600              0.23660314690D-03
  84701.7231790              0.18348332508D-02
  19276.2719000              0.95465849860D-02
   5456.4284576              0.38877142153D-01
   1776.9503500              0.12718314231
    639.19398276             0.30437662191
    248.78823961             0.44490940497
     98.678305494            0.24381643058
S    4   1.00
    606.07824568            -0.26527158709D-01
    188.45598484            -0.12484584809
     31.497144506            0.56468683559
     13.736008320            0.55555268564
S    2   1.00
     21.203212766           -0.24940920493
      3.7616420178           0.71213119743
S    1   1.00
      1.7735933962           1.0000000
S    1   1.00
      0.45197413664          1.0000000
S    1   1.00
      0.16613377099          1.0000000
S    1   1.00
      0.52769579657D-01      1.0000000
P    6   1.00
   3019.6955723              0.24971049798D-02
    715.35481126             0.20419267596D-01
    229.98328751             0.96897148309D-01
     86.167844615            0.28053901252
     34.667870802            0.44606390473
     14.113870307            0.24410073923
P    4   1.00
     57.085653082           -0.21855950710D-01
      8.8193845840           0.32707075320
      3.9340302872           0.57855229520
      1.7998830384           0.33570987698
P    1   1.00
      0.66899410512          1.0000000
P    1   1.00
      0.27136238231          1.0000000
P    1   1.00
      0.10083790243          1.0000000
P    1   1.00
      0.29005224647D-01      1.0000000
D    5   1.00
    168.85370257             0.89663981988D-02
     49.977949919            0.62062059316D-01
     18.274913338            0.21474732384
      7.2455694631           0.40335336746
      2.8562315025           0.42208813080
D    1   1.00
      1.0459621144            .17874813267
D    1   1.00
      0.56865655             1.0000000
D    1   1.00
      0.22031490             1.0000000
D    1   1.00
      0.75865567476D-01      1.0000000
F    1   1.00
      0.57083312             1.0000000
****

