HELLO WORLD! 2
%Chk=checkpoint.chk
%NProcShared=12
# wB97XD Gen Opt=(QST2) SCRF=(Solvent=TetraHydroFuran)

Mn Transition State Reactant

0 1
Mn         3.204960        0.184130       -0.470010
C          4.001270       -0.448160       -1.997530
C          4.631800       -0.359980        0.526440
C          3.984390        1.835430       -0.630640
Br         2.886751        2.886751        2.886751
N          2.107050        0.815940        1.276350
N          2.177090       -1.693960       -0.197830
C          2.704380        1.294120        2.381780
C          1.988310        1.792970        3.461190
C          0.596300        1.826850        3.403070
C         -0.037960        1.326780        2.266220
C          0.772880        0.819560        1.251850
C          0.915030       -1.835180       -0.614030
C          0.069870       -2.869740       -0.219890
C          2.680980       -2.677670        0.566270
C          1.942670       -3.790530        0.947190
C          0.605110       -3.882850        0.573060
C         -1.370500       -2.762800       -0.588410
C         -1.505200        1.424860        2.025190
C         -2.302070        0.316180        1.678340
C         -2.232770       -2.005960        0.227020
C         -3.643800        0.504530        1.318240
C         -3.564170       -1.802890       -0.158560
C         -1.870090       -3.340090       -1.757820
C         -2.098680        2.692120        2.067470
C         -3.437240        2.870330        1.729620
C         -3.197680       -3.142010       -2.133060
C         -4.039850       -2.358640       -1.349070
C         -4.205570        1.782960        1.327540
S         -1.645840       -1.336890        1.770040
S         -4.671860       -0.875750        0.875470
H          2.524370        2.165790        4.334040
H          0.013280        2.237540        4.230010
H          0.293520        0.414980        0.366460
H          0.526220       -1.069450       -1.280900
H          3.714030       -2.577020        0.897270
H          2.412010       -4.558960        1.561550
H         -0.015790       -4.716970        0.905370
H         -1.203960       -3.934360       -2.386170
H         -1.487030        3.555550        2.337030
H         -3.877210        3.868540        1.753320
H         -3.575510       -3.588030       -3.054480
H         -5.072450       -2.179430       -1.654780
H         -5.245040        1.919870        1.023510
O          5.560130       -0.649850        1.128530
O          4.465210        2.865690       -0.727660
O          4.485080       -0.860010       -2.944740
H          3.795150        1.287910        2.401590
N          1.635770        0.918560       -1.537740
C          0.658810        1.381340       -1.944850
H         -1.600330        0.156920       -1.315500
C         -1.748280        1.097530       -1.850000
C         -0.647730        1.855260       -2.288060
C         -3.034840        1.556530       -2.102120
H         -3.891340        0.974720       -1.756410
C         -0.831410        3.059510       -2.981520
C         -3.222040        2.757060       -2.789450
C         -2.126520        3.502230       -3.229920
H          0.030630        3.638630       -3.314700
H         -4.234170        3.116220       -2.984870

Mn Transition State Product

0 1
Mn         2.948790       -0.000250        0.124710
C          3.970220        1.318300        0.856790
C          3.961820       -0.000140       -1.354900
C          3.970010       -1.319100        0.856540
Br         1.734680       -0.000070        2.448050
N          1.601340       -1.485920       -0.673520
N          1.601500        1.485660       -0.673260
C          1.971590       -2.281080       -1.693040
C          1.116490       -3.201840       -2.279620
C         -0.195140       -3.299160       -1.819640
C         -0.595130       -2.476850       -0.769160
C          0.352300       -1.609980       -0.218580
C          0.352190        1.609200       -0.218940
C         -0.594860        2.476840       -0.768960
C          1.972350        2.281920       -1.691710
C          1.117620        3.203360       -2.277740
C         -0.194220        3.300310       -1.818290
C         -1.977320        2.485540       -0.214650
C         -1.977440       -2.485600       -0.214480
C         -2.824650       -1.372060       -0.364770
C         -2.824570        1.372020       -0.364870
C         -4.098180       -1.374490        0.219790
C         -4.098140        1.374580        0.219600
C         -2.448900        3.606310        0.475960
C         -2.448940       -3.606220        0.476400
C         -3.718960       -3.608220        1.048490
C         -3.718980        3.608470        1.047910
C         -4.536260        2.486660        0.942500
C         -4.536240       -2.486430        0.942930
S         -2.320820       -0.000070       -1.379320
S         -5.201370        0.000050       -0.001310
H          1.476750       -3.825370       -3.098040
H         -0.899480       -3.997410       -2.276760
H          0.087560       -1.004570        0.647730
H          0.086890        1.002800        0.646490
H          2.996310        2.182860       -2.052740
H          1.478340        3.827770       -3.095300
H         -0.898240        3.999210       -2.274940
H         -1.797290        4.475860        0.583610
H         -1.797340       -4.475780        0.584100
H         -4.067830       -4.483790        1.598660
H         -4.067880        4.484150        1.597870
H         -5.521210        2.471940        1.413200
H         -5.521160       -2.471620        1.413710
O          4.667850       -0.000030       -2.263070
O          4.601510       -2.153780        1.317690
O          4.601970        2.152850        1.317850
H          2.995350       -2.181690       -2.054530
N         -1.809068       -1.809068        5.427204
C         -1.495759       -2.122377        6.496909
C         -1.106657       -2.512266        7.826570
C         -1.779331       -3.561426        8.470123
C         -0.057127       -1.839653        8.470166
C         -1.397784       -3.932889        9.755895
H         -2.594519       -4.078694        7.961707
C          0.314252       -2.221100        9.755783
H          0.460047       -1.024677        7.961319
C         -0.353879       -3.264988        10.397516
H         -1.918877       -4.748852        10.259712
H          1.130273       -1.700210        10.259724
H         -0.058571       -3.560326        11.406373

C H O N S 0
Def2SVP
****
Mn 0
Def2TZVP
****
Br 0
S    6   1.00
 113286.3877600              0.14283037779D-02
  17009.6263030              0.10950417496D-01
   3870.1842567              0.54421006604D-01
   1093.0357227              0.19047907695
    356.39721797             0.39024642737
    123.12539643             0.30814432514
S    3   1.00
    236.74084007            -0.11228065671
     28.468661070            0.64775962312
     11.883443722            0.44235575986
S    3   1.00
     21.269633312           -0.22642576323
      3.6129226841           0.73823712008
      1.6626648969           0.42683868694
S    1   1.00
      0.34823793232          1.0000000
S    1   1.00
      0.13019031394          1.0000000
S    1   1.00
      0.50966709763D-01      1.0000000
P    5   1.00
   1560.2801881              0.87166669072D-02
    368.47859205             0.66243637420D-01
    117.22978849             0.26495610385
     42.648909248            0.53839160587
     16.087225096            0.36579387888
P    3   1.00
      8.6352810058           0.34248787366
      3.5613665502           0.57500678213
      1.5292626609           0.24330394172
P    1   1.00
      0.53064294848          1.0000000
P    1   1.00
      0.15702758965          1.0000000
P    1   1.00
      0.39636841846D-01      1.0000000
D    4   1.00
    104.85518642             0.22650147581D-01
     30.281143688            0.13455483230
     10.651394267            0.36474454537
      3.8699456233           0.49044587056
D    1   1.00
      1.3240876762            .27137289040
D    1   1.00
      0.3890000              1.0000000
D    1   1.00
      0.96543342393D-01      1.0000000
****

