%Chk=checkpoint.chk
%NProcShared=12
# wB97XD Gen Opt=(QST3) SCRF=(Solvent=TetraHydroFuran)

Anthracene Transition State Reactant

0 1
Mn        -1.01940       -0.13282       -1.30041
C         -1.95084        1.09527       -2.29845
O         -2.50101        1.87539       -2.92239
C         -1.94096       -1.55093       -2.01671
O         -2.47772       -2.45176       -2.46467
C          0.20025       -0.27236       -2.64310
N          0.04927       -1.53221       -0.03083
C          0.07866       -3.04556        1.82820
C          1.46702       -3.12280        1.77993
C          1.37634       -1.67638       -0.11513
H         -0.49205       -3.59310        2.57846
H          2.01871       -3.71611        2.51212
N         -2.37065        0.02942        0.19031
C         -3.16697        0.13023        1.01980
C         -4.10539        0.26580        2.09209
C         -3.62020        0.43566        3.39952
C         -4.52704        0.57079        4.44399
C         -5.48203        0.23058        1.82486
H         -2.54534        0.46071        3.58681
H         -5.82775        0.09615        0.79488
N          0.05018        1.50245       -0.35369
C          0.08073        3.37421        1.14383
C          1.47006        3.42805        1.09346
H         -0.49002        4.07266        1.75603
C         -0.58809       -2.23239        0.92237
H         -1.67251       -2.14107        0.96102
C         -0.58735        2.39419        0.42298
H         -1.67305        2.32336        0.46813
H         -4.16287        0.70328        5.46409
O          0.94147       -0.36186       -3.51126
C          3.71034        0.05692        0.59661
C          6.44285        0.00195        0.07986
C          2.14993       -2.41932        0.78562
C          3.63318       -2.42875        0.67238
C          4.33237       -3.60918        0.65808
C          5.74721       -3.62943        0.48325
C          6.44286       -2.47015        0.28898
C          5.76733       -1.20725        0.29051
C          4.35206       -1.18133        0.52939
H          3.79554       -4.55679        0.74485
H          6.26618       -4.58974        0.47691
H          7.52231       -2.48926        0.12265
C          4.35394        1.25516        0.28141
C          5.76945        1.23001        0.04342
C          6.44775        2.46555       -0.21061
C          5.75436        3.64152       -0.25402
C          4.33929        3.65908       -0.08147
C          3.63726        2.50702        0.16895
H          7.52743        2.44868       -0.37582
H          6.27529        4.58008       -0.45221
H          3.80437        4.60560       -0.18931
C          2.15352        2.52607        0.27520
H          2.02229        4.15802        1.68899
C          1.37923        1.61496       -0.45427
H          1.87683        0.94259       -1.15220
H          1.87309       -1.17143       -0.94303
C         -5.89955        0.53687        4.18594
C         -6.37363        0.36773        2.88435
H         -7.44706        0.34214        2.68994
H         -6.60706        0.64379        5.01079
Br        -5.87537       -0.28615       -1.89241
H          7.52454       -0.01473       -0.07653
H          2.66679        0.08836        0.89635

Anthracene Transition State Product

0 1
Mn        -1.44286        0.16026       -2.01412
C         -2.20443        1.54882       -2.90891
O         -2.68366        2.42731       -3.46349
C         -2.21304       -1.07612       -3.10367
O         -2.69804       -1.85971       -3.78172
C         -0.01408        0.23546       -3.09485
N         -0.60049       -1.44099       -0.81185
C         -0.82342       -3.27125        0.71581
C          0.55737       -3.36677        0.85296
C          0.72520       -1.59130       -0.72767
H         -1.48955       -3.94449        1.25661
H          1.00241       -4.09964        1.52935
N          0.07750       -0.17244        2.40410
C         -1.05369       -0.19765        2.64732
C         -2.45976       -0.23136        2.94445
C         -3.12645       -1.46210        3.01383
C         -4.49389       -1.48788        3.26678
C         -3.15853        0.96659        3.14480
H         -2.57220       -2.38909        2.86463
H         -2.62937        1.91849        3.09601
N         -0.59083        1.56154       -0.58857
C         -0.80429        3.14130        1.19825
C          0.57690        3.20654        1.34817
H         -1.46646        3.72850        1.83564
C         -1.36380       -2.28301       -0.09733
H         -2.44255       -2.14076       -0.17604
C         -1.34964        2.29100        0.24463
H         -2.42913        2.16919        0.14486
H         -5.01736       -2.44419        3.31559
O          0.86165        0.28730       -3.83871
C          2.91235       -0.04746        0.58557
C          5.69235       -0.04273        0.41158
C          1.36924       -2.49754        0.12252
C          2.85402       -2.50630        0.21569
C          3.56205       -3.67493        0.08887
C          4.98786       -3.68132        0.09599
C          5.69088       -2.51399        0.19056
C          5.00769       -1.26191        0.32192
C          3.57322       -1.26107        0.38259
H          3.02896       -4.61681       -0.06081
H          5.51371       -4.63251       -0.00729
H          6.78300       -2.51728        0.16154
C          3.58071        1.17889        0.56648
C          5.01522        1.18024        0.50650
C          5.70587        2.43375        0.56536
C          5.00976        3.60611        0.64834
C          3.58394        3.60941        0.64000
C          2.86897        2.43926        0.58848
H          6.79801        2.43509        0.53708
H          5.54131        4.55882        0.69009
H          3.05653        4.56629        0.63458
C          1.38429        2.45343        0.49431
H          1.02578        3.82526        2.12808
C          0.73572        1.68987       -0.48314
H          1.34033        1.15471       -1.21400
H          1.33286       -0.95580       -1.37019
C         -5.19354       -0.29487        3.45284
C         -4.52569        0.92909        3.39758
H         -5.07398        1.86057        3.54798
H         -6.26798       -0.31941        3.64516
Br        -3.72263        0.07153       -0.71897
H          1.84487       -0.05936        0.78995
H          6.78538       -0.04496        0.39399

Anthracene Transition State Inital Guess

0 1
Mn        -0.924582       -0.172380       -2.299473
C         -1.647169        1.014879       -3.492548
O         -2.028475        1.776146       -4.257478
C         -1.720638       -1.562516       -3.204367
O         -2.156607       -2.451019       -3.776581
C          0.472941       -0.331404       -3.361481
N         -0.210804       -1.605553       -1.011912
C         -0.694776       -3.332385        0.576795
C          0.621501       -3.320602        1.028050
C          1.070791       -1.691477       -0.655418
H         -1.435932       -3.995357        1.021080
H          0.928746       -3.958857        1.860591
N         -1.759763        0.078877        0.351778
C         -2.133947        0.149415        1.442097
C         -2.677928        0.295376        2.767766
C         -1.858533        0.598330        3.848089
C         -2.408624        0.760329        5.114599
C         -4.045822        0.145259        2.956517
H         -0.796208        0.731522        3.690936
H         -4.671792       -0.099771        2.108608
N         -0.193217        1.418247       -1.306720
C         -0.656738        3.386846       -0.031810
C          0.667473        3.462570        0.386975
H         -1.395668        4.108877        0.312477
C         -1.075188       -2.452916       -0.422846
H         -2.118635       -2.395570       -0.745908
C         -1.055946        2.340883       -0.848913
H         -2.104363        2.200687       -1.123534
H         -1.771665        1.017057        5.962756
O          1.339809       -0.458799       -4.111187
C          3.009077        0.074959        0.766245
C          5.759085        0.098924        1.153053
C          1.545107       -2.481206        0.402193
C          2.980170       -2.422558        0.803521
C          3.686818       -3.578297        1.013743
C          5.079540       -3.554476        1.314674
C          5.763172       -2.372282        1.361531
C          5.083841       -1.129698        1.143573
C          3.668912       -1.145975        0.914220
H          3.186174       -4.547304        0.903784
H          5.600446       -4.500354        1.471487
H          6.837402       -2.353072        1.548676
C          3.685845        1.292922        0.661480
C          5.101044        1.307217        0.892561
C          5.801050        2.559041        0.858126
C          5.134853        3.716369        0.582304
C          3.740769        3.694820        0.282856
C          3.017032        2.527716        0.299029
H          6.875464        2.564599        1.047672
H          5.669595        4.669050        0.553169
H          3.253873        4.628083       -0.009586
C          1.580989        2.527763       -0.096066
H          0.987580        4.234941        1.091228
C          1.091657        1.569339       -0.994731
H          1.788791        0.886217       -1.472051
H          1.777927       -1.099456       -1.235037
C         -3.767516        0.604642        5.302617
C         -4.585414        0.297969        4.226917
H         -5.652045        0.166551        4.380269
H         -4.194183        0.729227        6.299611
Br        -3.930149       -0.028868       -1.892728
H          6.832259        0.112446        1.344216
H          1.928957        0.071496        0.701295

C H O N 0
Def2SVP
****
Mn 0
Def2TZVP
****
Br 0
S    6   1.00
 113286.3877600              0.14283037779D-02
  17009.6263030              0.10950417496D-01
   3870.1842567              0.54421006604D-01
   1093.0357227              0.19047907695
    356.39721797             0.39024642737
    123.12539643             0.30814432514
S    3   1.00
    236.74084007            -0.11228065671
     28.468661070            0.64775962312
     11.883443722            0.44235575986
S    3   1.00
     21.269633312           -0.22642576323
      3.6129226841           0.73823712008
      1.6626648969           0.42683868694
S    1   1.00
      0.34823793232          1.0000000
S    1   1.00
      0.13019031394          1.0000000
S    1   1.00
      0.50966709763D-01      1.0000000
P    5   1.00
   1560.2801881              0.87166669072D-02
    368.47859205             0.66243637420D-01
    117.22978849             0.26495610385
     42.648909248            0.53839160587
     16.087225096            0.36579387888
P    3   1.00
      8.6352810058           0.34248787366
      3.5613665502           0.57500678213
      1.5292626609           0.24330394172
P    1   1.00
      0.53064294848          1.0000000
P    1   1.00
      0.15702758965          1.0000000
P    1   1.00
      0.39636841846D-01      1.0000000
D    4   1.00
    104.85518642             0.22650147581D-01
     30.281143688            0.13455483230
     10.651394267            0.36474454537
      3.8699456233           0.49044587056
D    1   1.00
      1.3240876762            .27137289040
D    1   1.00
      0.3890000              1.0000000
D    1   1.00
      0.96543342393D-01      1.0000000
****

