%NProcShared=12
%Chk=checkpoint.chk
%Mem=1200MW
# wB97XD Gen SCRF=(Solvent=TetraHydroFuran)

Anth Prod Calculation

0 1
Mn        -0.89729       -0.43305        1.75581
C         -1.49090       -1.82634        2.78141
O         -1.85628       -2.69934        3.42082
C         -1.89904        0.78655        2.69460
O         -2.50643        1.54541        3.29052
C          0.47908       -0.17377        2.91810
N         -0.23830        1.16355        0.45799
C         -0.70987        2.76472       -1.25978
C          0.64463        3.03204       -1.42362
C          1.05541        1.48842        0.34768
H         -1.46696        3.26877       -1.86122
H          0.98750        3.73638       -2.18467
N         -2.42772       -0.72209        0.46926
C         -3.32352       -0.90636       -0.23463
C         -4.39531       -1.18926       -1.13898
C         -4.11677       -1.30439       -2.50907
C         -5.15485       -1.58882       -3.38940
C         -5.69830       -1.35646       -0.64867
H         -3.09785       -1.16582       -2.87377
H         -5.89843       -1.25221        0.41818
N          0.23560       -1.84293        0.55034
C          0.30066       -3.60666       -1.07261
C          1.67805       -3.46722       -1.21144
H         -0.25395       -4.34315       -1.65435
C         -1.11200        1.81838       -0.32560
H         -2.17571        1.60488       -0.19747
C         -0.38167       -2.77116       -0.19959
H         -1.46292       -2.84945       -0.09795
H         -4.95018       -1.67639       -4.45758
O          1.32064       -0.01147        3.67700
C          3.47419        0.15610       -0.80386
C          6.21762        0.59488       -0.67136
C          1.56785        2.38061       -0.60093
C          3.03522        2.60325       -0.70769
C          3.55650        3.87257       -0.71943
C          4.96442        4.09550       -0.74846
C          5.83809        3.04584       -0.72681
C          5.35443        1.69790       -0.71056
C          3.93702        1.47230       -0.74870
H          2.88517        4.73288       -0.66703
H          5.33775        5.12128       -0.75691
H          6.91669        3.21841       -0.71429
C          4.32008       -0.94492       -0.65700
C          5.73723       -0.72006       -0.61650
C          6.61216       -1.85109       -0.53481
C          6.10508       -3.11764       -0.46766
C          4.69657       -3.33774       -0.44416
C          3.81115       -2.29271       -0.52434
H          7.69123       -1.68155       -0.52028
H          6.77639       -3.97584       -0.40118
H          4.32146       -4.35668       -0.32253
C          2.34463       -2.52302       -0.42819
H          2.23146       -4.07789       -1.92782
C          1.56834       -1.77166        0.46349
H          2.06798       -1.07347        1.13402
H          1.74162        1.01645        1.05026
C         -6.45377       -1.75634       -2.90676
C         -6.72438       -1.64163       -1.54199
H         -7.74290       -1.76876       -1.17212
H         -7.26565       -1.97628       -3.60283
Br        -4.78854        2.47826       -0.06593
H          7.29721        0.76604       -0.66721
H          2.41296       -0.01770       -0.95688

C H O N Mn 0
Def2TZVPP
****
Br     0
S    8   1.00
 565073.2525600              0.23660314690D-03
  84701.7231790              0.18348332508D-02
  19276.2719000              0.95465849860D-02
   5456.4284576              0.38877142153D-01
   1776.9503500              0.12718314231
    639.19398276             0.30437662191
    248.78823961             0.44490940497
     98.678305494            0.24381643058
S    4   1.00
    606.07824568            -0.26527158709D-01
    188.45598484            -0.12484584809
     31.497144506            0.56468683559
     13.736008320            0.55555268564
S    2   1.00
     21.203212766           -0.24940920493
      3.7616420178           0.71213119743
S    1   1.00
      1.7735933962           1.0000000
S    1   1.00
      0.45197413664          1.0000000
S    1   1.00
      0.16613377099          1.0000000
S    1   1.00
      0.52769579657D-01      1.0000000
P    6   1.00
   3019.6955723              0.24971049798D-02
    715.35481126             0.20419267596D-01
    229.98328751             0.96897148309D-01
     86.167844615            0.28053901252
     34.667870802            0.44606390473
     14.113870307            0.24410073923
P    4   1.00
     57.085653082           -0.21855950710D-01
      8.8193845840           0.32707075320
      3.9340302872           0.57855229520
      1.7998830384           0.33570987698
P    1   1.00
      0.66899410512          1.0000000
P    1   1.00
      0.27136238231          1.0000000
P    1   1.00
      0.10083790243          1.0000000
P    1   1.00
      0.29005224647D-01      1.0000000
D    5   1.00
    168.85370257             0.89663981988D-02
     49.977949919            0.62062059316D-01
     18.274913338            0.21474732384
      7.2455694631           0.40335336746
      2.8562315025           0.42208813080
D    1   1.00
      1.0459621144            .17874813267
D    1   1.00
      0.56865655             1.0000000
D    1   1.00
      0.22031490             1.0000000
D    1   1.00
      0.75865567476D-01      1.0000000
F    1   1.00
      0.57083312             1.0000000
****

