%NProcShared=12
%Chk=checkpoint.chk
# wB97XD Gen SCRF=(Solvent=TetraHydroFuran) Opt

Thian React Optimization

0 1
  Mn  8.61563912776243      3.04629177434951     14.76070099391005
  C   10.21396377170644      3.64360260196898     15.42930249235413
  O   11.22486899185599      3.93737564931909     15.86874860141862
  C   8.95740433446469      3.75281503661877     13.10526089795246
  O   9.15418223191917      4.13703385261584     12.04907486205854
  C   9.43670683443093      1.50442516479936     14.25827527788890
  N   6.65512385660562      2.40027515422778     14.02026539119715
  C   4.51203619841337      2.98076804560843     13.11517861920710
  C   4.07226865536226      1.66628198053198     13.24513793955409
  C   6.24193609653678      1.13249852220896     14.09169149025729
  H   3.86050836610510      3.75926469607665     12.71488269974068
  H   3.05461726664042      1.38476878008014     12.96261197396406
  N   7.65961584403897      4.72515619531673     15.35324901937754
  C   7.13183797994893      5.68196368664763     15.71969887154033
  C   6.43175286389504      6.83045955724086     16.22016668854027
  C   5.21497108448582      6.63874157069684     16.89318651595836
  C   4.54023241475033      7.74510094993810     17.39686349017739
  C   6.97478839668829      8.11121760675575     16.04617455736397
  H   4.81050905353475      5.63136847662012     17.01619132245305
  H   7.93007957519367      8.21543369274016     15.51791191645997
  N   8.13012032416246      2.28636325219374     16.76442463993432
  C   7.75485583625596      2.72519374355219     19.09141833777020
  C   7.32647326754613      1.41640086863441     19.29551574746724
  H   7.78495666695766      3.44589979805953     19.91028036776489
  C   5.79773259839765      3.30673542609112     13.52061497491626
  H   6.15515603767482      4.33457231240390     13.43940541762299
  C   8.13682511783261      3.12070988665795     17.81801827862787
  H   8.46346034491197      4.14625656346934     17.63765031356573
  H   3.59258015438257      7.60985285196607     17.92323146229949
  O   9.99675494957600      0.56370974917006     13.91997562042907
  S   4.76716074201138     -0.32634483460587     16.66634849355576
  S   4.03720179595758     -3.41551208123127     16.93140028511209
  C   4.95513654991666      0.71272931453481     13.75022936487836
  C   4.57340315366809     -0.71728762668796     13.92778267174074
  C   4.24643147889141     -1.48956386827941     12.80812259346276
  C   3.91463215447227     -2.83541576829983     12.94052196409837
  C   3.90497040614230     -3.43191346170913     14.19774213095614
  C   4.18718428948798     -2.66562876719337     15.33083315683902
  C   4.52085042902771     -1.31014377797181     15.20395612567381
  H   4.27463274022376     -1.02564399442774     11.81896107534629
  H   3.67431180890148     -3.42887398005085     12.05548463697366
  H   3.66699382907008     -4.49284710958178     14.30689642590047
  C   5.80119909179004     -1.40305601378759     17.63494446291645
  C   5.46127277319554     -2.75745135690132     17.75910481140825
  C   6.20717238608323     -3.60032721505610     18.58592915205103
  C   7.26788010449323     -3.08238000035253     19.32237511919459
  C   7.61154236323391     -1.73857426254986     19.20185947141198
  C   6.90337916292171     -0.88863946986440     18.34488539007003
  H   5.94613634416365     -4.65904655970983     18.65723911002604
  H   7.84267213834216     -3.73581184790716     19.98260597671588
  H   8.45931952333370     -1.33738564913114     19.76288452171420
  C   7.32841198059412      0.53480815783203     18.21519104429211
  H   6.99260942804380      1.08280651329098     20.28144723930954
  C   7.76909702716517      1.01922165991159     16.98175261394837
  H   7.83213220773347      0.32672673886675     16.14279815177499
  H   6.96114644569053      0.38617480890717     14.42991819950095
  C   5.07480143819866      9.02468202819492     17.22955110374950
  C   6.28416484197178      9.20635459453951     16.55729241517637
  H   6.69646231968786     10.21026570615455     16.43155651893489
  H   4.54139843569096      9.89073783678517     17.63005835069524
  Br  10.12246457205869      7.28486942832137     14.25958323139933

C H O N S 0
Def2SVP
****
Mn 0
Def2TZVP
****
Br 0
S    6   1.00
 113286.3877600              0.14283037779D-02
  17009.6263030              0.10950417496D-01
   3870.1842567              0.54421006604D-01
   1093.0357227              0.19047907695
    356.39721797             0.39024642737
    123.12539643             0.30814432514
S    3   1.00
    236.74084007            -0.11228065671
     28.468661070            0.64775962312
     11.883443722            0.44235575986
S    3   1.00
     21.269633312           -0.22642576323
      3.6129226841           0.73823712008
      1.6626648969           0.42683868694
S    1   1.00
      0.34823793232          1.0000000
S    1   1.00
      0.13019031394          1.0000000
S    1   1.00
      0.50966709763D-01      1.0000000
P    5   1.00
   1560.2801881              0.87166669072D-02
    368.47859205             0.66243637420D-01
    117.22978849             0.26495610385
     42.648909248            0.53839160587
     16.087225096            0.36579387888
P    3   1.00
      8.6352810058           0.34248787366
      3.5613665502           0.57500678213
      1.5292626609           0.24330394172
P    1   1.00
      0.53064294848          1.0000000
P    1   1.00
      0.15702758965          1.0000000
P    1   1.00
      0.39636841846D-01      1.0000000
D    4   1.00
    104.85518642             0.22650147581D-01
     30.281143688            0.13455483230
     10.651394267            0.36474454537
      3.8699456233           0.49044587056
D    1   1.00
      1.3240876762            .27137289040
D    1   1.00
      0.3890000              1.0000000
D    1   1.00
      0.96543342393D-01      1.0000000
****

